.Version 9.9.2 of ABINIT

 ABINIT is a project of the Universite Catholique de Louvain,
 Corning Inc. and other collaborators, see ~abinit/doc/developers/contributors.txt .
 acknowledgments of the ABINIT effort.

.Starting date : Fri 17 Feb 2023.
- ( at 10h33 )

- input  file    -> run.abi
- output file    -> run.abo
- root for input  files -> ../indata_ac
- root for output files -> outdata_ac

 DATASET    1 : space group Fm -3 m (#225); Bravais cF (face-center cubic)
     intxc =       0    ionmov =       0      iscf =       7    lmnmax =       5
     lnmax =       5     mgfft =      36  mpssoang =       3    mqgrid =    3001
     natom =       2  nloc_mem =       1    nspden =       1   nspinor =       1
    nsppol =       1      nsym =      48    n1xccc =    2501    ntypat =       2
    occopt =       1   xclevel =       2
-    mband =         480        mffmem =           1         mkmem =           1
       mpw =        1840          nfft =       46656          nkpt =          29
  Rough estimation (10% accuracy) of disk space for files :

 DATASET    2 : space group Fm -3 m (#225); Bravais cF (face-center cubic)
     intxc =       0    ionmov =       0      iscf =       7    lmnmax =       5
     lnmax =       5     mgfft =      36  mpssoang =       3    mqgrid =    3001
     natom =       2  nloc_mem =       1    nspden =       1   nspinor =       1
    nsppol =       1      nsym =      48    n1xccc =    2501    ntypat =       2
    occopt =       1   xclevel =       2
-    mband =         480        mffmem =           1         mkmem =           1
       mpw =        1840          nfft =       46656          nkpt =          29
  Rough estimation (10% accuracy) of disk space for files :

------------- Echo of variables that govern the present computation ------------
-
- outvars: echo of selected default values
-   iomode0 =  0 , fftalg0 =312 , wfoptalg0 =  0
-
- outvars: echo of global parameters not present in the input file
-  max_nthreads =    0
-
 -outvars: echo values of preprocessed input variables --------
            acell      7.9614161978E+00  7.9614161978E+00  7.9614161978E+00 Bohr
              amu      2.43050000E+01  1.59994000E+01
             bdgw           1      12       1      12
           diemac      1.20000000E+01
             ecut      4.50000000E+01 Hartree
          ecuteps      1.20000000E+01 Hartree
         ecutsigx      4.50000000E+01 Hartree
          ecutwfn      4.50000000E+01 Hartree
-          fftalg         312
           getscr1          0
           getscr2         -1
           istwfk        1    0    0    0    1    0    0    0    0    0
                         0    0    0    0    0    0    0    0    0    0
                         1    0    0    0    0    0    0    0    0
              ixc          11
           jdtset        1    2
              kpt      0.00000000E+00  0.00000000E+00  0.00000000E+00
                       1.25000000E-01  0.00000000E+00  0.00000000E+00
                       2.50000000E-01  0.00000000E+00  0.00000000E+00
                       3.75000000E-01  0.00000000E+00  0.00000000E+00
                       5.00000000E-01  0.00000000E+00  0.00000000E+00
                       1.25000000E-01  1.25000000E-01  0.00000000E+00
                       2.50000000E-01  1.25000000E-01  0.00000000E+00
                       3.75000000E-01  1.25000000E-01  0.00000000E+00
                       5.00000000E-01  1.25000000E-01  0.00000000E+00
                      -3.75000000E-01  1.25000000E-01  0.00000000E+00
                      -2.50000000E-01  1.25000000E-01  0.00000000E+00
                      -1.25000000E-01  1.25000000E-01  0.00000000E+00
                       2.50000000E-01  2.50000000E-01  0.00000000E+00
                       3.75000000E-01  2.50000000E-01  0.00000000E+00
                       5.00000000E-01  2.50000000E-01  0.00000000E+00
                      -3.75000000E-01  2.50000000E-01  0.00000000E+00
                      -2.50000000E-01  2.50000000E-01  0.00000000E+00
                       3.75000000E-01  3.75000000E-01  0.00000000E+00
                       5.00000000E-01  3.75000000E-01  0.00000000E+00
                      -3.75000000E-01  3.75000000E-01  0.00000000E+00
                       5.00000000E-01  5.00000000E-01  0.00000000E+00
                       3.75000000E-01  2.50000000E-01  1.25000000E-01
                       5.00000000E-01  2.50000000E-01  1.25000000E-01
                      -3.75000000E-01  2.50000000E-01  1.25000000E-01
                       5.00000000E-01  3.75000000E-01  1.25000000E-01
                      -3.75000000E-01  3.75000000E-01  1.25000000E-01
                      -2.50000000E-01  3.75000000E-01  1.25000000E-01
                      -3.75000000E-01  5.00000000E-01  1.25000000E-01
                      -2.50000000E-01  5.00000000E-01  2.50000000E-01
            kptgw      0.00000000E+00  0.00000000E+00  0.00000000E+00
                       5.00000000E-01  5.00000000E-01  0.00000000E+00
         kptrlatt        8    0    0      0    8    0      0    0    8
          kptrlen      4.50365711E+01
P           mkmem           1
            natom           2
            nband         480
           ndtset           2
            ngfft          36      36      36
             nkpt          29
           nkptgw           2
           npweps         259
          npwsigx        1837
           npwwfn        1837
            nstep          50
             nsym          48
           ntypat           2
              occ      2.000000  2.000000  2.000000  2.000000  2.000000  2.000000
                       2.000000  2.000000  0.000000  0.000000  0.000000  0.000000
                       0.000000  0.000000  0.000000  0.000000  0.000000  0.000000
                       0.000000  0.000000  0.000000  0.000000  0.000000  0.000000
                       0.000000  0.000000  0.000000  0.000000  0.000000  0.000000
                       0.000000  0.000000  0.000000  0.000000  0.000000  0.000000
                       0.000000  0.000000  0.000000  0.000000  0.000000  0.000000
                       0.000000  0.000000  0.000000  0.000000  0.000000  0.000000
                       0.000000  0.000000  0.000000  0.000000  0.000000  0.000000
                       0.000000  0.000000  0.000000  0.000000  0.000000  0.000000
                       0.000000  0.000000  0.000000  0.000000  0.000000  0.000000
                       0.000000  0.000000  0.000000  0.000000  0.000000  0.000000
                       0.000000  0.000000  0.000000  0.000000  0.000000  0.000000
                       0.000000  0.000000  0.000000  0.000000  0.000000  0.000000
                       0.000000  0.000000  0.000000  0.000000  0.000000  0.000000
                       0.000000  0.000000  0.000000  0.000000  0.000000  0.000000
                       0.000000  0.000000  0.000000  0.000000  0.000000  0.000000
                       0.000000  0.000000  0.000000  0.000000  0.000000  0.000000
                       0.000000  0.000000  0.000000  0.000000  0.000000  0.000000
                       0.000000  0.000000  0.000000  0.000000  0.000000  0.000000
                       0.000000  0.000000  0.000000  0.000000  0.000000  0.000000
                       0.000000  0.000000  0.000000  0.000000  0.000000  0.000000
                       0.000000  0.000000  0.000000  0.000000  0.000000  0.000000
                       0.000000  0.000000  0.000000  0.000000  0.000000  0.000000
                       0.000000  0.000000  0.000000  0.000000  0.000000  0.000000
                       0.000000  0.000000  0.000000  0.000000  0.000000  0.000000
                       0.000000  0.000000  0.000000  0.000000  0.000000  0.000000
                       0.000000  0.000000  0.000000  0.000000  0.000000  0.000000
                       0.000000  0.000000  0.000000  0.000000  0.000000  0.000000
                       0.000000  0.000000  0.000000  0.000000  0.000000  0.000000
                       0.000000  0.000000  0.000000  0.000000  0.000000  0.000000
                       0.000000  0.000000  0.000000  0.000000  0.000000  0.000000
                       0.000000  0.000000  0.000000  0.000000  0.000000  0.000000
                       0.000000  0.000000  0.000000  0.000000  0.000000  0.000000
                       0.000000  0.000000  0.000000  0.000000  0.000000  0.000000
                       0.000000  0.000000  0.000000  0.000000  0.000000  0.000000
                       0.000000  0.000000  0.000000  0.000000  0.000000  0.000000
                       0.000000  0.000000  0.000000  0.000000  0.000000  0.000000
                       0.000000  0.000000  0.000000  0.000000  0.000000  0.000000
                       0.000000  0.000000  0.000000  0.000000  0.000000  0.000000
                       0.000000  0.000000  0.000000  0.000000  0.000000  0.000000
                       0.000000  0.000000  0.000000  0.000000  0.000000  0.000000
                       0.000000  0.000000  0.000000  0.000000  0.000000  0.000000
                       0.000000  0.000000  0.000000  0.000000  0.000000  0.000000
                       0.000000  0.000000  0.000000  0.000000  0.000000  0.000000
                       0.000000  0.000000  0.000000  0.000000  0.000000  0.000000
                       0.000000  0.000000  0.000000  0.000000  0.000000  0.000000
                       0.000000  0.000000  0.000000  0.000000  0.000000  0.000000
                       0.000000  0.000000  0.000000  0.000000  0.000000  0.000000
                       0.000000  0.000000  0.000000  0.000000  0.000000  0.000000
                       0.000000  0.000000  0.000000  0.000000  0.000000  0.000000
                       0.000000  0.000000  0.000000  0.000000  0.000000  0.000000
                       0.000000  0.000000  0.000000  0.000000  0.000000  0.000000
                       0.000000  0.000000  0.000000  0.000000  0.000000  0.000000
                       0.000000  0.000000  0.000000  0.000000  0.000000  0.000000
                       0.000000  0.000000  0.000000  0.000000  0.000000  0.000000
                       0.000000  0.000000  0.000000  0.000000  0.000000  0.000000
                       0.000000  0.000000  0.000000  0.000000  0.000000  0.000000
                       0.000000  0.000000  0.000000  0.000000  0.000000  0.000000
                       0.000000  0.000000  0.000000  0.000000  0.000000  0.000000
                       0.000000  0.000000  0.000000  0.000000  0.000000  0.000000
[...]
                       0.000000  0.000000  0.000000  0.000000  0.000000  0.000000
                       0.000000  0.000000  0.000000  0.000000  0.000000  0.000000
                       0.000000  0.000000  0.000000  0.000000  0.000000  0.000000
                       0.000000  0.000000  0.000000  0.000000  0.000000  0.000000
                       0.000000  0.000000  0.000000  0.000000  0.000000  0.000000
                       0.000000  0.000000  0.000000  0.000000  0.000000  0.000000
                       0.000000  0.000000  0.000000  0.000000  0.000000  0.000000
                       0.000000  0.000000  0.000000  0.000000  0.000000  0.000000
[...]
                       0.000000  0.000000  0.000000  0.000000  0.000000  0.000000
                       0.000000  0.000000  0.000000  0.000000  0.000000  0.000000
                       0.000000  0.000000  0.000000  0.000000  0.000000  0.000000
                       0.000000  0.000000  0.000000  0.000000  0.000000  0.000000
                       0.000000  0.000000  0.000000  0.000000  0.000000  0.000000
                       0.000000  0.000000  0.000000  0.000000  0.000000  0.000000
                       0.000000  0.000000  0.000000  0.000000  0.000000  0.000000
                       0.000000  0.000000  0.000000  0.000000  0.000000  0.000000
                       0.000000  0.000000  0.000000  0.000000  0.000000  0.000000
                       0.000000  0.000000  0.000000  0.000000  0.000000  0.000000
                       0.000000  0.000000  0.000000  0.000000  0.000000  0.000000
                       0.000000  0.000000  0.000000  0.000000  0.000000  0.000000
                       0.000000  0.000000  0.000000  0.000000  0.000000  0.000000
                       0.000000  0.000000  0.000000  0.000000  0.000000  0.000000
                       0.000000  0.000000  0.000000  0.000000  0.000000  0.000000
                       0.000000  0.000000  0.000000  0.000000  0.000000  0.000000
                       0.000000  0.000000  0.000000  0.000000  0.000000  0.000000
                       0.000000  0.000000  0.000000  0.000000  0.000000  0.000000
                       0.000000  0.000000  0.000000  0.000000  0.000000  0.000000
                       0.000000  0.000000  0.000000  0.000000  0.000000  0.000000
                       0.000000  0.000000  0.000000  0.000000  0.000000  0.000000
[...]
                       0.000000  0.000000  0.000000  0.000000  0.000000  0.000000
                       0.000000  0.000000  0.000000  0.000000  0.000000  0.000000
                       0.000000  0.000000  0.000000  0.000000  0.000000  0.000000
                       0.000000  0.000000  0.000000  0.000000  0.000000  0.000000
                       0.000000  0.000000  0.000000  0.000000  0.000000  0.000000
                       0.000000  0.000000  0.000000  0.000000  0.000000  0.000000
                       0.000000  0.000000  0.000000  0.000000  0.000000  0.000000
                       0.000000  0.000000  0.000000  0.000000  0.000000  0.000000
                       0.000000  0.000000  0.000000  0.000000  0.000000  0.000000
                       0.000000  0.000000  0.000000  0.000000  0.000000  0.000000
                       0.000000  0.000000  0.000000  0.000000  0.000000  0.000000
                       0.000000  0.000000  0.000000  0.000000  0.000000  0.000000
                       0.000000  0.000000  0.000000  0.000000  0.000000  0.000000
                       0.000000  0.000000  0.000000  0.000000  0.000000  0.000000
                       0.000000  0.000000  0.000000  0.000000  0.000000  0.000000
        optdriver1          3
        optdriver2          4
            rprim      0.0000000000E+00  5.0000000000E-01  5.0000000000E-01
                       5.0000000000E-01  0.0000000000E+00  5.0000000000E-01
                       5.0000000000E-01  5.0000000000E-01  0.0000000000E+00
          spgroup         225
           strten1     0.0000000000E+00  0.0000000000E+00  0.0000000000E+00
                       0.0000000000E+00  0.0000000000E+00  0.0000000000E+00
           strten2     0.0000000000E+00  0.0000000000E+00  0.0000000000E+00
                       0.0000000000E+00  0.0000000000E+00  0.0000000000E+00
           symrel      1  0  0   0  1  0   0  0  1      -1  0  0   0 -1  0   0  0 -1
                       0 -1  1   0 -1  0   1 -1  0       0  1 -1   0  1  0  -1  1  0
                      -1  0  0  -1  0  1  -1  1  0       1  0  0   1  0 -1   1 -1  0
                       0  1 -1   1  0 -1   0  0 -1       0 -1  1  -1  0  1   0  0  1
                      -1  0  0  -1  1  0  -1  0  1       1  0  0   1 -1  0   1  0 -1
                       0 -1  1   1 -1  0   0 -1  0       0  1 -1  -1  1  0   0  1  0
                       1  0  0   0  0  1   0  1  0      -1  0  0   0  0 -1   0 -1  0
                       0  1 -1   0  0 -1   1  0 -1       0 -1  1   0  0  1  -1  0  1
                      -1  0  1  -1  1  0  -1  0  0       1  0 -1   1 -1  0   1  0  0
                       0 -1  0   1 -1  0   0 -1  1       0  1  0  -1  1  0   0  1 -1
                       1  0 -1   0  0 -1   0  1 -1      -1  0  1   0  0  1   0 -1  1
                       0  1  0   0  0  1   1  0  0       0 -1  0   0  0 -1  -1  0  0
                       1  0 -1   0  1 -1   0  0 -1      -1  0  1   0 -1  1   0  0  1
                       0 -1  0   0 -1  1   1 -1  0       0  1  0   0  1 -1  -1  1  0
                      -1  0  1  -1  0  0  -1  1  0       1  0 -1   1  0  0   1 -1  0
                       0  1  0   1  0  0   0  0  1       0 -1  0  -1  0  0   0  0 -1
                       0  0 -1   0  1 -1   1  0 -1       0  0  1   0 -1  1  -1  0  1
                       1 -1  0   0 -1  1   0 -1  0      -1  1  0   0  1 -1   0  1  0
                       0  0  1   1  0  0   0  1  0       0  0 -1  -1  0  0   0 -1  0
                      -1  1  0  -1  0  0  -1  0  1       1 -1  0   1  0  0   1  0 -1
                       0  0  1   0  1  0   1  0  0       0  0 -1   0 -1  0  -1  0  0
                       1 -1  0   0 -1  0   0 -1  1      -1  1  0   0  1  0   0  1 -1
                       0  0 -1   1  0 -1   0  1 -1       0  0  1  -1  0  1   0 -1  1
                      -1  1  0  -1  0  1  -1  0  0       1 -1  0   1  0 -1   1  0  0
           timopt          -1
            typat      1  2
              wtk        0.00195    0.01563    0.01563    0.01563    0.00781    0.01172
                         0.04688    0.04688    0.04688    0.04688    0.04688    0.02344
                         0.01172    0.04688    0.04688    0.04688    0.02344    0.01172
                         0.04688    0.02344    0.00586    0.04688    0.09375    0.04688
                         0.04688    0.09375    0.04688    0.02344    0.01172
           xangst      0.0000000000E+00  0.0000000000E+00  0.0000000000E+00
                       2.1065000000E+00  2.1065000000E+00  2.1065000000E+00
            xcart      0.0000000000E+00  0.0000000000E+00  0.0000000000E+00
                       3.9807080989E+00  3.9807080989E+00  3.9807080989E+00
             xred      0.0000000000E+00  0.0000000000E+00  0.0000000000E+00
                       5.0000000000E-01  5.0000000000E-01  5.0000000000E-01
            znucl       12.00000    8.00000

 Test the timer :
  a combined call timab(*,1,tsec) + timab(*,2,tsec) is

-
-  as well as % of the time and number of calls for node 0
-
-<BEGIN_TIMER mpi_nprocs = 128, omp_nthreads = 1, mpi_rank = 0>
- cpu_time =           90.3, wall_time =           90.7
-
-                                                                        (-1=no count)
- sigma/=fourdp                    20.520   0.2        20.624   0.2              1      -1.00        0.99       0.99
- wfd_read_wfk                      1.891   0.0         1.906   0.0              2      -1.00        0.99       0.99
- pspini                            0.512   0.0         0.514   0.0              2      -1.00        1.00       1.00
- abinit(2)                         0.151   0.0         0.155   0.0              1      -1.00        0.97       0.97
- timing timab                      0.117   0.0         0.117   0.0             14      -1.00        1.00       1.00
- invars2                           0.051   0.0         0.051   0.0              2      -1.00        1.00       1.00
- fourdp                            0.035   0.0         0.035   0.0             34      -1.00        1.00       1.00
- xc:pot/=fourdp                    0.032   0.0         0.032   0.0              3      -1.00        1.00       1.00
- ewald                             0.021   0.0         0.021   0.0              2      -1.00        1.00       1.00
- mkffnl                            0.013   0.0         0.013   0.0             29      -1.00        1.01       1.01
- others (145)                      0.014   0.0         0.014   0.0             -1      -1.00        1.00       1.00
-<END_TIMER>
-
- subtotal                         23.358   0.2        23.481   0.2                                  0.99       0.99

- as well as % of the total time and number of calls

-<BEGIN_TIMER mpi_nprocs = 128, omp_nthreads = 1, mpi_rank = world>
- cpu_time =       11592.5, wall_time =       11601.4
-
-                                                                        (-1=no count)
- sigma/=fourdp                  2612.154  22.5      2612.916  22.5            128      -1.00        1.00       1.00
- wfd_read_wfk                    243.737   2.1       243.840   2.1            256      -1.00        1.00       1.00
- pspini                           65.163   0.6        65.186   0.6            256      -1.00        1.00       1.00
- timing timab                     14.668   0.1        14.669   0.1           1792      -1.00        1.00       1.00
- abinit(2)                         8.303   0.1         8.469   0.1            128      -1.00        0.98       0.98
- invars2                           6.378   0.1         6.380   0.1            256      -1.00        1.00       1.00
- fourdp                            4.369   0.0         4.374   0.0           4352      -1.00        1.00       1.00
- xc:pot/=fourdp                    3.958   0.0         3.964   0.0            384      -1.00        1.00       1.00
- ewald                             2.609   0.0         2.609   0.0            256      -1.00        1.00       1.00
- mkffnl                            1.344   0.0         1.339   0.0           3712      -1.00        1.00       1.00
- mkcore                            0.903   0.0         0.903   0.0            256      -1.00        1.00       1.00
- kpgsph                            0.572   0.0         0.571   0.0          38202      -1.00        1.00       1.00
- symrhg(no FFT)                    0.263   0.0         0.263   0.0            256      -1.00        1.00       1.00
- others (142)                      0.000   0.0         0.000   0.0             -1      -1.00        0.00       0.00
-<END_TIMER>

- subtotal                       2964.420  25.6      2965.484  25.6                                  1.00       1.00

 Partitioning of abinit
- abinit                        11592.515 100.0     11601.352 100.0            128                   1.00       1.00

- abinit(1)                        19.950   0.2        22.199   0.2            128                   0.90       0.90
- abinit(2)                         8.303   0.1         8.469   0.1            128                   0.98       0.98
- indefo+macroin+invars2m           6.735   0.1         6.738   0.1            128                   1.00       1.00
- abinit(4)                        30.561   0.3        32.410   0.3            128                   0.94       0.94
- abinit(5)                         4.426   0.0         4.465   0.0            128                   0.99       0.99
- driver                        11536.829  99.5     11541.853  99.5            128                   1.00       1.00
- timing timab                     14.668   0.1        14.669   0.1           1792                   1.00       1.00

[...]

 Partitioning of driver
- driver                        11536.829  99.5     11541.853  99.5            128                   1.00       1.00

- screening                      8895.830  76.7      8899.980  76.7            128                   1.00       1.00
- sigma                          2612.250  22.5      2613.012  22.5            128                   1.00       1.00
- (other)                          27.044   0.2        27.073   0.2             -1                   1.00       1.00

[...]

 Partitioning of screening
- screening                      8895.830  76.7      8899.980  76.7            128                   1.00       1.00

- screening(init1)                176.335   1.5       176.480   1.5            128                   1.00       1.00
- screening(wfs)                  162.117   1.4       162.226   1.4            128                   1.00       1.00
- screening(1)                      7.581   0.1         7.583   0.1            128                   1.00       1.00
- screening(density)               18.158   0.2        20.399   0.2            128                   0.89       0.89
- screening(2)                      4.704   0.0         4.708   0.0            128                   1.00       1.00
- screening(cchi0q0)              152.946   1.3       153.078   1.3            128                   1.00       1.00
- screening(cchi0)               8344.507  72.0      8345.919  71.9           3584                   1.00       1.00
- screening(q-loop,end)            28.678   0.2        28.770   0.2           3712                   1.00       1.00

[...]

 Partitioning of sigma
- sigma                          2612.250  22.5      2613.012  22.5            128                   1.00       1.00

- sigma(Init1)                      4.916   0.0         4.918   0.0            256                   1.00       1.00
- setup_sigma                      83.371   0.7        83.476   0.7            128                   1.00       1.00
- sigma(rdkss)                     87.892   0.8        87.914   0.8            128                   1.00       1.00
- sigma(Init2)                      2.455   0.0         2.458   0.0            128                   1.00       1.00
- sigma(make_vhxc)                 23.234   0.2        23.238   0.2            128                   1.00       1.00
- sigma(vHxc_me)                    3.324   0.0         3.379   0.0            128                   0.98       0.98
- sigma(hqp_init)                  24.722   0.2        24.727   0.2            128                   1.00       1.00
- sigma(getW)                      17.316   0.1        17.322   0.1            128                   1.00       1.00
- sigma(calc_sigx_me)             157.533   1.4       157.596   1.4            128                   1.00       1.00
- sigma(calc_sigc_me)            2205.197  19.0      2205.512  19.0            256                   1.00       1.00

[...]

 Partitioning of calc_sigc_me
- calc_sigc_me                   2205.197  19.0      2205.512  19.0            256                   1.00       1.00

- calc_sigc_me(Init)               23.321   0.2        23.344   0.2            256                   1.00       1.00
- calc_sigc_me(Init q)              2.704   0.0         2.711   0.0          11264                   1.00       1.00
- calc_sigc_me(loop)             2027.789  17.5      2028.011  17.5          11264                   1.00       1.00
- calc_sigc_me(xmpi_sum)          150.743   1.3       150.791   1.3            256                   1.00       1.00

- subtotal                       2205.139  19.0      2205.463  19.0                                  1.00       1.00

 Partitioning of  fourdp (upwards partitioning)
- fourdp                            4.369   0.0         4.374   0.0           4352                   1.00       1.00

- fourdp%(other)                    4.194   0.0         4.199   0.0           4096                   1.00       1.00

- subtotal                          4.369   0.0         4.374   0.0                                  1.00       1.00
-
-
- subtotal                          0.000   0.0         0.000   0.0                                  0.00       0.00

 Additional information
- timana(1)                         0.098   0.0         0.100   0.0            128                   0.99       0.99
- total timab                      15.408   0.1        15.410   0.1       26163578                   1.00       1.00
- xc:fourdp                         2.241   0.0         2.239   0.0           3072                   1.00       1.00
- calc_sigc_me(1)             3437446.473******  88912875.805******          42240                   0.04       0.04
- calc_sigc_me(rho_tw_g)           73.019   0.6        73.056   0.6          42240                   1.00       1.00
- calc_sigc_me(2)                1951.390  16.8      1951.895  16.8         535200                   1.00       1.00
- calc_sigc_me(sigma_me)            0.779   0.0         0.782   0.0         535200                   1.00       1.00
- cchi0                          8344.398  72.0      8345.824  71.9           3584                   1.00       1.00

 timana : in multi dataset mode, the more detailed analysis is not done.

 Suggested references for the acknowledgment of ABINIT usage.

 Calculation completed.
.Delivered   0 WARNINGs and   0 COMMENTs to log file.