.Version 9.9.2 of ABINIT

 ABINIT is a project of the Universite Catholique de Louvain,
 Corning Inc. and other collaborators, see ~abinit/doc/developers/contributors.txt .
 acknowledgments of the ABINIT effort.

.Starting date : Fri 17 Feb 2023.
- ( at 00h55 )

 === Build Information ===
  Version       : 9.9.2
  Build target  : x86_64_linux_gnu11.2
  Build date    : 20230216

 === Optimizations ===
  Debug level        : basic
  Optimization level : standard
  Architecture       : amd_epyc

 === Multicore ===
  Parallel build : /opt/cray/pe/mpich/8.1.12/ofi/gnu/9.1
  Parallel I/O   :
  openMP support : no
  GPU support    :

 === Connectors / Fallbacks ===
  LINALG flavor  : netlib
  FFT flavor     : fftw3
  HDF5           : yes
  NetCDF         : yes
  NetCDF Fortran : yes
  Wannier90      : no

 === Experimental features ===
  Exports             :
  GW double-precision : no

 Default optimizations:
   --- None ---

 CPP options activated during the build:

                    CC_GNU                   CXX_GNU                    FC_GNU

 HAVE_FC_ALLOCATABLE_DT...             HAVE_FC_ASYNC         HAVE_FC_BACKTRACE

  HAVE_FC_COMMAND_ARGUMENT      HAVE_FC_COMMAND_LINE        HAVE_FC_CONTIGUOUS

           HAVE_FC_CPUTIME              HAVE_FC_EXIT             HAVE_FC_FLUSH

             HAVE_FC_GAMMA            HAVE_FC_GETENV   HAVE_FC_IEEE_ARITHMETIC

   HAVE_FC_IEEE_EXCEPTIONS          HAVE_FC_INT_QUAD             HAVE_FC_IOMSG

     HAVE_FC_ISO_C_BINDING  HAVE_FC_ISO_FORTRAN_2008        HAVE_FC_LONG_LINES

        HAVE_FC_MOVE_ALLOC  HAVE_FC_ON_THE_FLY_SHAPE           HAVE_FC_PRIVATE

         HAVE_FC_PROTECTED           HAVE_FC_SHIFTLR         HAVE_FC_STREAM_IO

            HAVE_FC_SYSTEM                HAVE_FFTW3            HAVE_FFTW3_MPI

          HAVE_FORTRAN2003                 HAVE_HDF5        HAVE_LIBPAW_ABINIT

       HAVE_MPI_IALLGATHER       HAVE_MPI_IALLREDUCE        HAVE_MPI_IALLTOALL

       HAVE_MPI_IALLTOALLV           HAVE_MPI_IBCAST         HAVE_MPI_IGATHERV

        HAVE_MPI_INTEGER16               HAVE_MPI_IO HAVE_MPI_TYPE_CREATE_S...

               HAVE_NETCDF       HAVE_NETCDF_FORTRAN             HAVE_OS_LINUX

         HAVE_TIMER_ABINIT

- input  file    -> run.abi
- output file    -> run.abo
- root for input  files -> indata_gs
- root for output files -> outdata_gs

-instrng: 30 lines of input have been read from file globals

-instrng: 28 lines of input have been read from file run.abi

 For atom type 1, psp file is Ga.psp8
 For atom type 2, psp file is As.psp8
  read the values zionpsp= 13.0 , pspcod=   8 , lmax=   2
  read the values zionpsp= 15.0 , pspcod=   8 , lmax=   2

 inpspheads: deduce mpsang = 3, n1xccc = 2501.

 invars1m : enter jdtset= 1

 symlatt: the Bravais lattice is cF (face-centered cubic)
  xred   is defined in input file
 ingeo: takes atomic coordinates from input array xred

--- !COMMENT
src_file: m_ingeo.F90
src_line: 890
message: |
    The tolerance on symmetries =   1.000E-05 is bigger than 1.0e-8.
    In order to avoid spurious effects, the atomic coordinates have been
    symmetrized before storing them in the dataset internal variable.
    So, do not be surprised by the fact that your input variables (xcart, xred, ...)
    do not correspond exactly to the ones echoed by ABINIT, the latter being used to do the calculations.
    This is not a problem per se.
    Still, in order to avoid this symmetrization (e.g. for specific debugging/development), decrease tolsym to 1.0e-8 or lower,
    or (much preferred) use input primitive vectors that are accurate to better than 1.0e-8.
    This message will only be printed once, even if there are other datasets where tolsym is bigger than 1.0e-8.
...

 symlatt: the Bravais lattice is cF (face-centered cubic)

 symlatt: the Bravais lattice is cF (face-centered cubic)
 symspgr: spgroup= 216  F-4 3 m   (=Td^2)
 symspgr: optical characteristics = isotropic

 invars1m : enter jdtset= 2

 symlatt: the Bravais lattice is cF (face-centered cubic)
  xred   is defined in input file
 ingeo: takes atomic coordinates from input array xred

 symlatt: the Bravais lattice is cF (face-centered cubic)

 symlatt: the Bravais lattice is cF (face-centered cubic)
 symspgr: spgroup= 216  F-4 3 m   (=Td^2)
 symspgr: optical characteristics = isotropic
 invars2: read the value of fband=  2.00000000E+00 from input file.
 invars2: take the default value of fband=  1.25000000E-01
 getmpw sequential formula gave: 4383

 Searching for all possible proc distributions for this input with #CPUs<=256:

 |    1<<   29|    1<<   22|    1<<   18|    1<<   18|    1<<  256|  <=   256|
 |          29|           8|           1|          18|         232|   205.143|
 |          29|           8|           1|           6|         232|   202.217|
 |          16|          16|           1|          18|         256|   194.585|
 |          29|           8|           1|           2|         232|   193.439|
 |          17|          15|           1|          18|         255|   188.831|
 |          29|           4|           2|           1|         232|   188.069|
 |          15|          16|           1|          18|         240|   187.951|
 |          16|          16|           1|           6|         256|   186.674|
 |          16|          15|           1|          18|         240|   183.109|
 |          17|           5|           3|           6|         255|   182.345|
 Only the best possible choices for nproc are printed...

 >>> Possible (best) choices for the number of bands (nband) are:
     with: np_spkpt=29 npfft=8
 >>> The present nband value (    18) seems to be a good choice!

 For input ecut=  4.500000E+01 best grid ngfft=      48      48      48
       max ecut=  4.990397E+01

 ==== FFT mesh ====
  FFT mesh divisions ........................    48   48   48
  Augmented FFT divisions ...................    49   49   48
  FFT algorithm .............................   312
  FFT cache size ............................    16
 Relative gap for number of plane waves between process (%): 12.05
 Relative gap for number of plane waves between process (%): 12.72
 Relative gap for number of plane waves between process (%): 14.06
 Relative gap for number of plane waves between process (%): 12.73
 Relative gap for number of plane waves between process (%): 12.37
 Relative gap for number of plane waves between process (%): 13.66
 Relative gap for number of plane waves between process (%): 12.92
 Relative gap for number of plane waves between process (%): 12.78
 Relative gap for number of plane waves between process (%): 12.94
 Relative gap for number of plane waves between process (%): 12.97
 Relative gap for number of plane waves between process (%): 13.15
 Relative gap for number of plane waves between process (%): 12.89
 Relative gap for number of plane waves between process (%): 13.03
 Relative gap for number of plane waves between process (%): 12.76
 Relative gap for number of plane waves between process (%): 12.76
 Relative gap for number of plane waves between process (%): 13.14
 Relative gap for number of plane waves between process (%): 13.66
 Relative gap for number of plane waves between process (%): 13.00
 Relative gap for number of plane waves between process (%): 13.19
 Relative gap for number of plane waves between process (%): 13.87
 Relative gap for number of plane waves between process (%): 13.76
 Relative gap for number of plane waves between process (%): 13.85
 Relative gap for number of plane waves between process (%): 13.87
 Relative gap for number of plane waves between process (%): 13.53
 Relative gap for number of plane waves between process (%): 13.99
 Relative gap for number of plane waves between process (%): 14.26
 Relative gap for number of plane waves between process (%): 14.07
 Relative gap for number of plane waves between process (%): 13.21
 Relative gap for number of plane waves between process (%): 14.22
 getmpw: optimal value of mpw= 584

--- !WARNING
src_file: m_mpinfo.F90
src_line: 2337
message: |
    nproc_spkpt= 256 >= nkpt= 29* nsppol= 1
     Ignore this warning if this is not a GS run
...

 For input ecut=  4.500000E+01 best grid ngfft=      48      48      48
       max ecut=  4.990397E+01

 ==== FFT mesh ====
  FFT mesh divisions ........................    48   48   48
  Augmented FFT divisions ...................    49   49   48
  FFT algorithm .............................   312
  FFT cache size ............................    16
 getmpw: optimal value of mpw= 4405

 DATASET    1 : space group F-4 3 m (#216); Bravais cF (face-center cubic)

 getdim_nloc: deduce lmnmax  =  18, lnmax  =   6,
                      lmnmaxso=  18, lnmaxso=   6.
     intxc =       0    ionmov =       0      iscf =       7    lmnmax =       6
     lnmax =       6     mgfft =      48  mpssoang =       3    mqgrid =    3001
     natom =       2  nloc_mem =       1    nspden =       1   nspinor =       1
    nsppol =       1      nsym =      24    n1xccc =    2501    ntypat =       2
    occopt =       1   xclevel =       2
-    mband =          18        mffmem =           1         mkmem =           1
       mpw =         584          nfft =       13824          nkpt =          29
  Rough estimation (10% accuracy) of disk space for files :

 The job will continue.

 DATASET    2 : space group F-4 3 m (#216); Bravais cF (face-center cubic)

 getdim_nloc: deduce lmnmax  =  18, lnmax  =   6,
                      lmnmaxso=  18, lnmaxso=   6.
     intxc =       0    ionmov =       0      iscf =       7    lmnmax =       6
     lnmax =       6     mgfft =      48  mpssoang =       3    mqgrid =    3001
     natom =       2  nloc_mem =       1    nspden =       1   nspinor =       1
    nsppol =       1      nsym =      24    n1xccc =    2501    ntypat =       2
    occopt =       1   xclevel =       2
-    mband =          15        mffmem =           1         mkmem =           1
       mpw =        4405          nfft =      110592          nkpt =          29
  Rough estimation (10% accuracy) of disk space for files :

------------- Echo of variables that govern the present computation ------------
-
- outvars: echo of selected default values
-   iomode0 =  0 , fftalg0 =312 , wfoptalg0 =  0
-
- outvars: echo of global parameters not present in the input file
-  max_nthreads =    0
-
 -outvars: echo values of preprocessed input variables --------

 These variables are accessible in NetCDF format (outdata_gs_OUT.nc)

-          iomode1          1
-          iomode2          0
            acell      1.0673173199E+01  1.0673173199E+01  1.0673173199E+01 Bohr
              amu      6.97230000E+01  7.49215900E+01
        autoparal1          1
        autoparal2          0
           bandpp1         18
           bandpp2          1
     densfor_pred1          6
     densfor_pred2          2
           diemac      1.20000000E+01
             ecut      4.50000000E+01 Hartree
-          fftalg         312
           getden1          0
           getden2         -1
           istwfk        1    0    0    0    1    0    0    0    0    0
                         0    0    0    0    0    0    0    0    0    0
[...]
  -1.14556   -1.14553   -1.14553   -1.14521   -1.14519   -0.39849   -0.39524   -0.39513
  -0.39323   -0.39288   -0.27239   -0.04947    0.08364    0.09566    0.23189    0.30216
   0.35412    0.37733
 kpt#   9, nband= 18, wtk=  0.04688, kpt=  0.5000  0.1250  0.0000 (reduced coord)
  -1.14555   -1.14553   -1.14552   -1.14520   -1.14519   -0.39898   -0.39514   -0.39504
  -0.39309   -0.39289   -0.25210   -0.08991    0.06778    0.09530    0.22508    0.30851
   0.34424    0.43360
 kpt#  10, nband= 18, wtk=  0.04688, kpt= -0.3750  0.1250  0.0000 (reduced coord)
  -1.14555   -1.14553   -1.14553   -1.14520   -1.14520   -0.39884   -0.39515   -0.39512
  -0.39302   -0.39298   -0.25719   -0.08053    0.06271    0.10513    0.22632    0.31639
   0.33489    0.43428
 kpt#  11, nband= 18, wtk=  0.04688, kpt= -0.2500  0.1250  0.0000 (reduced coord)
  -1.14555   -1.14554   -1.14554   -1.14520   -1.14520   -0.39813   -0.39535   -0.39527
  -0.39315   -0.39298   -0.28093   -0.02929    0.07116    0.12210    0.23411    0.32351
   0.32364    0.37445
 kpt#  12, nband= 18, wtk=  0.02344, kpt= -0.1250  0.1250  0.0000 (reduced coord)
  -1.14556   -1.14555   -1.14554   -1.14521   -1.14520   -0.39715   -0.39566   -0.39553
  -0.39315   -0.39302   -0.30234    0.03336    0.09847    0.13836    0.23352    0.29895
   0.30379    0.34761
 kpt#  13, nband= 18, wtk=  0.01172, kpt=  0.2500  0.2500  0.0000 (reduced coord)
  -1.14558   -1.14553   -1.14553   -1.14521   -1.14519   -0.39830   -0.39504   -0.39504
  -0.39350   -0.39284   -0.28566   -0.00161    0.08639    0.08639    0.22170    0.26925
   0.39231    0.39231
 kpt#  14, nband= 18, wtk=  0.04688, kpt=  0.3750  0.2500  0.0000 (reduced coord)
  -1.14558   -1.14552   -1.14552   -1.14522   -1.14518   -0.39899   -0.39481   -0.39474
  -0.39359   -0.39277   -0.26555   -0.04496    0.05969    0.07420    0.22663    0.27127
   0.38572    0.41406
 kpt#  15, nband= 18, wtk=  0.04688, kpt=  0.5000  0.2500  0.0000 (reduced coord)
  -1.14557   -1.14552   -1.14551   -1.14521   -1.14518   -0.39934   -0.39482   -0.39462
  -0.39347   -0.39281   -0.24418   -0.08204    0.02951    0.07353    0.22987    0.32207
   0.37834    0.40505
 kpt#  16, nband= 18, wtk=  0.04688, kpt= -0.3750  0.2500  0.0000 (reduced coord)
  -1.14555   -1.14553   -1.14552   -1.14520   -1.14519   -0.39925   -0.39493   -0.39471
  -0.39324   -0.39298   -0.24076   -0.08674    0.01422    0.08446    0.23749    0.34964
   0.38617    0.41971
 kpt#  17, nband= 18, wtk=  0.02344, kpt= -0.2500  0.2500  0.0000 (reduced coord)
  -1.14555   -1.14553   -1.14553   -1.14520   -1.14520   -0.39879   -0.39507   -0.39500
  -0.39314   -0.39306   -0.25943   -0.05889    0.02475    0.10371    0.24946    0.35575
   0.35729    0.36394
 kpt#  18, nband= 18, wtk=  0.01172, kpt=  0.3750  0.3750  0.0000 (reduced coord)
  -1.14559   -1.14550   -1.14550   -1.14522   -1.14517   -0.39959   -0.39438   -0.39438
  -0.39386   -0.39268   -0.25025   -0.06872    0.05946    0.05946    0.20253    0.23325
   0.47076    0.47076
 kpt#  19, nband= 18, wtk=  0.04688, kpt=  0.5000  0.3750  0.0000 (reduced coord)
  -1.14558   -1.14550   -1.14550   -1.14522   -1.14517   -0.39984   -0.39437   -0.39424
  -0.39383   -0.39268   -0.23343   -0.09216    0.03395    0.05629    0.21151    0.24698
   0.46156    0.47967
 kpt#  20, nband= 18, wtk=  0.02344, kpt= -0.3750  0.3750  0.0000 (reduced coord)
  -1.14557   -1.14551   -1.14550   -1.14521   -1.14518   -0.39966   -0.39463   -0.39436
  -0.39357   -0.39283   -0.22894   -0.09522    0.00646    0.06547    0.22095    0.31954
   0.44185    0.44584
 kpt#  21, nband= 18, wtk=  0.00586, kpt=  0.5000  0.5000  0.0000 (reduced coord)
  -1.14559   -1.14549   -1.14549   -1.14522   -1.14517   -0.40007   -0.39410   -0.39410
  -0.39402   -0.39261   -0.22760   -0.10214    0.05000    0.05000    0.20255    0.20976
   0.52351    0.52351
 kpt#  22, nband= 18, wtk=  0.04688, kpt=  0.3750  0.2500  0.1250 (reduced coord)
  -1.14557   -1.14553   -1.14553   -1.14521   -1.14519   -0.39837   -0.39517   -0.39507
  -0.39336   -0.39288   -0.27851   -0.02346    0.06037    0.10080    0.26099    0.27862
   0.34607    0.38196
 kpt#  23, nband= 18, wtk=  0.09375, kpt=  0.5000  0.2500  0.1250 (reduced coord)
  -1.14556   -1.14553   -1.14552   -1.14521   -1.14519   -0.39898   -0.39504   -0.39483
  -0.39331   -0.39289   -0.25523   -0.06802    0.03627    0.08473    0.26249    0.30328
   0.35247    0.40353
 kpt#  24, nband= 18, wtk=  0.04688, kpt= -0.3750  0.2500  0.1250 (reduced coord)
  -1.14555   -1.14553   -1.14551   -1.14520   -1.14519   -0.39922   -0.39501   -0.39474
  -0.39322   -0.39294   -0.24222   -0.08997    0.02986    0.07728    0.26042    0.30216
   0.38247    0.43202
 kpt#  25, nband= 18, wtk=  0.04688, kpt=  0.5000  0.3750  0.1250 (reduced coord)
  -1.14557   -1.14551   -1.14550   -1.14522   -1.14518   -0.39945   -0.39466   -0.39448
  -0.39364   -0.39276   -0.24605   -0.07372    0.03658    0.05742    0.24613    0.26664
   0.38017    0.46760
 kpt#  26, nband= 18, wtk=  0.09375, kpt= -0.3750  0.3750  0.1250 (reduced coord)
  -1.14556   -1.14552   -1.14550   -1.14521   -1.14518   -0.39955   -0.39475   -0.39439
  -0.39349   -0.39287   -0.23144   -0.09159    0.01372    0.05089    0.25916    0.32216
   0.36598    0.43766
 kpt#  27, nband= 18, wtk=  0.04688, kpt= -0.2500  0.3750  0.1250 (reduced coord)
  -1.14555   -1.14554   -1.14550   -1.14521   -1.14519   -0.39936   -0.39490   -0.39452
  -0.39334   -0.39296   -0.23661   -0.08536    0.00844    0.06349    0.27176    0.34166
   0.34891    0.43309
 kpt#  28, nband= 18, wtk=  0.02344, kpt= -0.3750  0.5000  0.1250 (reduced coord)
  -1.14558   -1.14551   -1.14549   -1.14522   -1.14518   -0.39985   -0.39442   -0.39425
  -0.39372   -0.39273   -0.22654   -0.09890    0.03288    0.03642    0.24291    0.25038
   0.44885    0.45640
 kpt#  29, nband= 18, wtk=  0.01172, kpt= -0.2500  0.5000  0.2500 (reduced coord)
  -1.14555   -1.14554   -1.14549   -1.14521   -1.14518   -0.39960   -0.39477   -0.39431
  -0.39345   -0.39293   -0.22546   -0.09523    0.01839    0.02550    0.31915    0.32241
   0.34821    0.37120
 Total charge density [el/Bohr^3]
)     Maximum=    2.4085E+00  at reduced coord.    0.1458    0.2708    0.0625
)Next maximum=    2.4085E+00  at reduced coord.    0.2708    0.2708    0.0625
)     Minimum=    5.2503E-05  at reduced coord.    0.0000    0.0000    0.0000
)Next minimum=    1.6392E-04  at reduced coord.    0.2500    0.2500    0.0000
   Integrated=    2.8000E+01

 Cartesian components of stress tensor (hartree/bohr^3)
  sigma(1 1)= -1.22807308E-04  sigma(3 2)=  0.00000000E+00
  sigma(2 2)= -1.22807308E-04  sigma(3 1)=  0.00000000E+00
  sigma(3 3)= -1.22807308E-04  sigma(2 1)=  0.00000000E+00

-Cartesian components of stress tensor (GPa)         [Pressure=  3.6131E+00 GPa]
- sigma(1 1)= -3.61311513E+00  sigma(3 2)=  0.00000000E+00
- sigma(2 2)= -3.61311513E+00  sigma(3 1)=  0.00000000E+00
- sigma(3 3)= -3.61311513E+00  sigma(2 1)=  0.00000000E+00

== DATASET  2 ==================================================================
-   mpi_nproc: 256, omp_nthreads: -1 (-1 if OMP is not activated)

 mkfilename : getden/=0, take file _DEN from output of DATASET   1.

 getdim_nloc: deduce lmnmax  =  18, lnmax  =   6,
                      lmnmaxso=  18, lnmaxso=   6.
 Exchange-correlation functional for the present dataset will be:
  GGA: Perdew-Burke-Ernzerhof functional - ixc=11
 Citation for XC functional:
  J.P.Perdew, K.Burke, M.Ernzerhof, PRL 77, 3865 (1996)

.Using single precision arithmetic; gwpc =  4

- Reading GS density from: outdata_gs_DS1_DEN

 getcut: wavevector=  0.0000  0.0000  0.0000  ngfft=  48  48  48
         ecut(hartree)=     45.000   => boxcut(ratio)=   2.10616

 ==== Coarse FFT mesh for the wavefunctions ====
  FFT mesh divisions ........................    48   48   48
  Augmented FFT divisions ...................    49   49   48
  FFT algorithm .............................   312
  FFT cache size ............................    16

 ==== Dense FFT mesh for densities and potentials ====
  FFT mesh divisions ........................    48   48   48
  Augmented FFT divisions ...................    49   49   48
  FFT algorithm .............................   312
  FFT cache size ............................    16
 About to read data(r) from: outdata_gs_DS1_DEN
 Total charge density [el/Bohr^3]
)     Maximum=    2.4085E+00  at reduced coord.    0.2708    0.2708    0.3125
)     Minimum=    5.2503E-05  at reduced coord.    0.0000    0.0000    0.0000
   Integrated=    2.8000E+01
 Comparing input crystal with DEN crystal
 Writing wavefunctions to file: outdata_gs_DS2_WFK

 Fermi level: 4.3142  (eV)

 === KS gaps after direct diagonalization ===
 Direct band gap semiconductor
 Fundamental gap:     0.538 (eV)
   VBM:     4.045 (eV) at k: [ 0.0000E+00,  0.0000E+00,  0.0000E+00]
   CBM:     4.583 (eV) at k: [ 0.0000E+00,  0.0000E+00,  0.0000E+00]
 Direct gap:         0.538 (eV) at k: [ 0.0000E+00,  0.0000E+00,  0.0000E+00]

== END DATASET(S) ==============================================================

 -outvars: echo values of variables after computation  --------

 These variables are accessible in NetCDF format (outdata_gs_OUT.nc)

-          iomode1          1
-          iomode2          0
            acell      1.0673173199E+01  1.0673173199E+01  1.0673173199E+01 Bohr
              amu      6.97230000E+01  7.49215900E+01
        autoparal1          1
        autoparal2          0
           bandpp1         18
           bandpp2          1
     densfor_pred1          6
     densfor_pred2          2
           diemac      1.20000000E+01
             ecut      4.50000000E+01 Hartree
           etotal1    -1.8256434576E+02
           etotal2     0.0000000000E+00
            fcart1    -1.7659712076E-28 -1.7659712076E-28  5.2979136227E-28
                       1.7659712076E-28  1.7659712076E-28 -5.2979136227E-28
            fcart2     0.0000000000E+00  0.0000000000E+00  0.0000000000E+00
                       0.0000000000E+00  0.0000000000E+00  0.0000000000E+00
-          fftalg         312
           getden1          0
           getden2         -1
           istwfk        1    0    0    0    1    0    0    0    0    0
                         0    0    0    0    0    0    0    0    0    0
                         1    0    0    0    0    0    0    0    0
              ixc          11
           jdtset        1    2
              kpt      0.00000000E+00  0.00000000E+00  0.00000000E+00
                       1.25000000E-01  0.00000000E+00  0.00000000E+00
                       2.50000000E-01  0.00000000E+00  0.00000000E+00
                       3.75000000E-01  0.00000000E+00  0.00000000E+00
                       5.00000000E-01  0.00000000E+00  0.00000000E+00
                       1.25000000E-01  1.25000000E-01  0.00000000E+00
                       2.50000000E-01  1.25000000E-01  0.00000000E+00
                       3.75000000E-01  1.25000000E-01  0.00000000E+00
                       5.00000000E-01  1.25000000E-01  0.00000000E+00
                      -3.75000000E-01  1.25000000E-01  0.00000000E+00
                      -2.50000000E-01  1.25000000E-01  0.00000000E+00
                      -1.25000000E-01  1.25000000E-01  0.00000000E+00
                       2.50000000E-01  2.50000000E-01  0.00000000E+00
                       3.75000000E-01  2.50000000E-01  0.00000000E+00
                       5.00000000E-01  2.50000000E-01  0.00000000E+00
                      -3.75000000E-01  2.50000000E-01  0.00000000E+00
                      -2.50000000E-01  2.50000000E-01  0.00000000E+00
                       3.75000000E-01  3.75000000E-01  0.00000000E+00
                       5.00000000E-01  3.75000000E-01  0.00000000E+00
                      -3.75000000E-01  3.75000000E-01  0.00000000E+00
                       5.00000000E-01  5.00000000E-01  0.00000000E+00
                       3.75000000E-01  2.50000000E-01  1.25000000E-01
                       5.00000000E-01  2.50000000E-01  1.25000000E-01
                      -3.75000000E-01  2.50000000E-01  1.25000000E-01
                       5.00000000E-01  3.75000000E-01  1.25000000E-01
                      -3.75000000E-01  3.75000000E-01  1.25000000E-01
                      -2.50000000E-01  3.75000000E-01  1.25000000E-01
                      -3.75000000E-01  5.00000000E-01  1.25000000E-01
                      -2.50000000E-01  5.00000000E-01  2.50000000E-01
         kptrlatt        8    0    0      0    8    0      0    0    8
          kptrlen      6.03765852E+01
P           mkmem           1
            natom           2
            nband1         18
            nband2         15
           ndtset           2
            ngfft          48      48      48
             nkpt          29
-           npfft1          8
-           npfft2          1
-        np_spkpt1         29
-        np_spkpt2          1
            nstep          50
             nsym          24
           ntypat           2
              occ1     2.000000  2.000000  2.000000  2.000000  2.000000  2.000000
                       2.000000  2.000000  2.000000  2.000000  2.000000  2.000000
                       2.000000  2.000000  0.000000  0.000000  0.000000  0.000000
              occ2     2.000000  2.000000  2.000000  2.000000  2.000000  2.000000
                       2.000000  2.000000  2.000000  2.000000  2.000000  2.000000
                       2.000000  2.000000  0.000000
        optdriver1          0
        optdriver2          6
           ortalg1         -2
           ortalg2          2
        paral_kgb1          1
        paral_kgb2          0
            rprim      0.0000000000E+00  5.0000000000E-01  5.0000000000E-01
                       5.0000000000E-01  0.0000000000E+00  5.0000000000E-01
                       5.0000000000E-01  5.0000000000E-01  0.0000000000E+00
          spgroup         216
           strten1    -1.2280730793E-04 -1.2280730793E-04 -1.2280730793E-04
                       0.0000000000E+00  0.0000000000E+00  0.0000000000E+00
           strten2     0.0000000000E+00  0.0000000000E+00  0.0000000000E+00
                       0.0000000000E+00  0.0000000000E+00  0.0000000000E+00
           symrel      1  0  0   0  1  0   0  0  1       0 -1  1   0 -1  0   1 -1  0
                      -1  0  0  -1  0  1  -1  1  0       0  1 -1   1  0 -1   0  0 -1
                      -1  0  0  -1  1  0  -1  0  1       0 -1  1   1 -1  0   0 -1  0
                       1  0  0   0  0  1   0  1  0       0  1 -1   0  0 -1   1  0 -1
                      -1  0  1  -1  1  0  -1  0  0       0 -1  0   1 -1  0   0 -1  1
                       1  0 -1   0  0 -1   0  1 -1       0  1  0   0  0  1   1  0  0
                       1  0 -1   0  1 -1   0  0 -1       0 -1  0   0 -1  1   1 -1  0
                      -1  0  1  -1  0  0  -1  1  0       0  1  0   1  0  0   0  0  1
                       0  0 -1   0  1 -1   1  0 -1       1 -1  0   0 -1  1   0 -1  0
                       0  0  1   1  0  0   0  1  0      -1  1  0  -1  0  0  -1  0  1
                       0  0  1   0  1  0   1  0  0       1 -1  0   0 -1  0   0 -1  1
                       0  0 -1   1  0 -1   0  1 -1      -1  1  0  -1  0  1  -1  0  0
           timopt          -1
           tolvrs1     1.00000000E-08
           tolvrs2     0.00000000E+00
            typat      1  2
         wfoptalg1        114
         wfoptalg2          0
              wtk        0.00195    0.01563    0.01563    0.01563    0.00781    0.01172
                         0.04688    0.04688    0.04688    0.04688    0.04688    0.02344
                         0.01172    0.04688    0.04688    0.04688    0.02344    0.01172
                         0.04688    0.02344    0.00586    0.04688    0.09375    0.04688
                         0.04688    0.09375    0.04688    0.02344    0.01172
           xangst      0.0000000000E+00  0.0000000000E+00  0.0000000000E+00
                       1.4120000000E+00  1.4120000000E+00  1.4120000000E+00
            xcart      0.0000000000E+00  0.0000000000E+00  0.0000000000E+00
                       2.6682932996E+00  2.6682932996E+00  2.6682932996E+00
             xred      0.0000000000E+00  0.0000000000E+00  0.0000000000E+00
                       2.5000000000E-01  2.5000000000E-01  2.5000000000E-01
            znucl       31.00000   33.00000

 Calculation completed.
.Delivered   0 WARNINGs and   0 COMMENTs to log file.

--- !FinalSummary
program: abinit
version: 9.9.2
start_datetime: Fri Feb 17 00:55:10 2023
end_datetime: Fri Feb 17 00:56:41 2023
overall_cpu_time:       23274.7
overall_wall_time:       23382.4
exit_requested_by_user: no
timelimit: 0
pseudos:
    Ga  : c0561db90e98f595da17f9cd99b3fad2
    As  : dcc36ea68579a22f411a6e67003c2999
usepaw: 0
mpi_procs: 256
omp_threads: 1
num_warnings: 0
num_comments: 0
...