.Version 9.9.2 of ABINIT

 ABINIT is a project of the Universite Catholique de Louvain,
 Corning Inc. and other collaborators, see ~abinit/doc/developers/contributors.txt .
 acknowledgments of the ABINIT effort.

.Starting date : Fri 17 Feb 2023.
- ( at 00h55 )

- input  file    -> run.abi
- output file    -> run.abo
- root for input  files -> indata_gs
- root for output files -> outdata_gs

 DATASET    1 : space group F-4 3 m (#216); Bravais cF (face-center cubic)
     intxc =       0    ionmov =       0      iscf =       7    lmnmax =       6
     lnmax =       6     mgfft =      48  mpssoang =       3    mqgrid =    3001
     natom =       2  nloc_mem =       1    nspden =       1   nspinor =       1
    nsppol =       1      nsym =      24    n1xccc =    2501    ntypat =       2
    occopt =       1   xclevel =       2
-    mband =          18        mffmem =           1         mkmem =           1
       mpw =         584          nfft =       13824          nkpt =          29
  Rough estimation (10% accuracy) of disk space for files :

 DATASET    2 : space group F-4 3 m (#216); Bravais cF (face-center cubic)
     intxc =       0    ionmov =       0      iscf =       7    lmnmax =       6
     lnmax =       6     mgfft =      48  mpssoang =       3    mqgrid =    3001
     natom =       2  nloc_mem =       1    nspden =       1   nspinor =       1
    nsppol =       1      nsym =      24    n1xccc =    2501    ntypat =       2
    occopt =       1   xclevel =       2
-    mband =          15        mffmem =           1         mkmem =           1
       mpw =        4405          nfft =      110592          nkpt =          29
  Rough estimation (10% accuracy) of disk space for files :

------------- Echo of variables that govern the present computation ------------
-
- outvars: echo of selected default values
-   iomode0 =  0 , fftalg0 =312 , wfoptalg0 =  0
-
- outvars: echo of global parameters not present in the input file
-  max_nthreads =    0
-
 -outvars: echo values of preprocessed input variables --------
-          iomode1          1
-          iomode2          0
            acell      1.0673173199E+01  1.0673173199E+01  1.0673173199E+01 Bohr
              amu      6.97230000E+01  7.49215900E+01
        autoparal1          1
        autoparal2          0
           bandpp1         18
           bandpp2          1
     densfor_pred1          6
     densfor_pred2          2
           diemac      1.20000000E+01
             ecut      4.50000000E+01 Hartree
-          fftalg         312
           getden1          0
           getden2         -1
           istwfk        1    0    0    0    1    0    0    0    0    0
                         0    0    0    0    0    0    0    0    0    0
                         1    0    0    0    0    0    0    0    0
              ixc          11
           jdtset        1    2
              kpt      0.00000000E+00  0.00000000E+00  0.00000000E+00
                       1.25000000E-01  0.00000000E+00  0.00000000E+00
                       2.50000000E-01  0.00000000E+00  0.00000000E+00
                       3.75000000E-01  0.00000000E+00  0.00000000E+00
                       5.00000000E-01  0.00000000E+00  0.00000000E+00
                       1.25000000E-01  1.25000000E-01  0.00000000E+00
                       2.50000000E-01  1.25000000E-01  0.00000000E+00
                       3.75000000E-01  1.25000000E-01  0.00000000E+00
                       5.00000000E-01  1.25000000E-01  0.00000000E+00
                      -3.75000000E-01  1.25000000E-01  0.00000000E+00
                      -2.50000000E-01  1.25000000E-01  0.00000000E+00
                      -1.25000000E-01  1.25000000E-01  0.00000000E+00
                       2.50000000E-01  2.50000000E-01  0.00000000E+00
                       3.75000000E-01  2.50000000E-01  0.00000000E+00
                       5.00000000E-01  2.50000000E-01  0.00000000E+00
                      -3.75000000E-01  2.50000000E-01  0.00000000E+00
                      -2.50000000E-01  2.50000000E-01  0.00000000E+00
                       3.75000000E-01  3.75000000E-01  0.00000000E+00
                       5.00000000E-01  3.75000000E-01  0.00000000E+00
                      -3.75000000E-01  3.75000000E-01  0.00000000E+00
                       5.00000000E-01  5.00000000E-01  0.00000000E+00
                       3.75000000E-01  2.50000000E-01  1.25000000E-01
                       5.00000000E-01  2.50000000E-01  1.25000000E-01
                      -3.75000000E-01  2.50000000E-01  1.25000000E-01
                       5.00000000E-01  3.75000000E-01  1.25000000E-01
                      -3.75000000E-01  3.75000000E-01  1.25000000E-01
                      -2.50000000E-01  3.75000000E-01  1.25000000E-01
                      -3.75000000E-01  5.00000000E-01  1.25000000E-01
                      -2.50000000E-01  5.00000000E-01  2.50000000E-01
         kptrlatt        8    0    0      0    8    0      0    0    8
          kptrlen      6.03765852E+01
P           mkmem           1
            natom           2
            nband1         18
            nband2         15
           ndtset           2
            ngfft          48      48      48
             nkpt          29
-           npfft1          8
-           npfft2          1
-        np_spkpt1         29
-        np_spkpt2          1
            nstep          50
             nsym          24
           ntypat           2
              occ1     2.000000  2.000000  2.000000  2.000000  2.000000  2.000000
                       2.000000  2.000000  2.000000  2.000000  2.000000  2.000000
                       2.000000  2.000000  0.000000  0.000000  0.000000  0.000000
              occ2     2.000000  2.000000  2.000000  2.000000  2.000000  2.000000
                       2.000000  2.000000  2.000000  2.000000  2.000000  2.000000
                       2.000000  2.000000  0.000000
        optdriver1          0
        optdriver2          6
           ortalg1         -2
           ortalg2          2
        paral_kgb1          1
        paral_kgb2          0
            rprim      0.0000000000E+00  5.0000000000E-01  5.0000000000E-01
                       5.0000000000E-01  0.0000000000E+00  5.0000000000E-01
                       5.0000000000E-01  5.0000000000E-01  0.0000000000E+00
          spgroup         216
           symrel      1  0  0   0  1  0   0  0  1       0 -1  1   0 -1  0   1 -1  0
                      -1  0  0  -1  0  1  -1  1  0       0  1 -1   1  0 -1   0  0 -1
                      -1  0  0  -1  1  0  -1  0  1       0 -1  1   1 -1  0   0 -1  0
                       1  0  0   0  0  1   0  1  0       0  1 -1   0  0 -1   1  0 -1
                      -1  0  1  -1  1  0  -1  0  0       0 -1  0   1 -1  0   0 -1  1
                       1  0 -1   0  0 -1   0  1 -1       0  1  0   0  0  1   1  0  0
                       1  0 -1   0  1 -1   0  0 -1       0 -1  0   0 -1  1   1 -1  0
                      -1  0  1  -1  0  0  -1  1  0       0  1  0   1  0  0   0  0  1
                       0  0 -1   0  1 -1   1  0 -1       1 -1  0   0 -1  1   0 -1  0
                       0  0  1   1  0  0   0  1  0      -1  1  0  -1  0  0  -1  0  1
                       0  0  1   0  1  0   1  0  0       1 -1  0   0 -1  0   0 -1  1
                       0  0 -1   1  0 -1   0  1 -1      -1  1  0  -1  0  1  -1  0  0
           timopt          -1
           tolvrs1     1.00000000E-08
           tolvrs2     0.00000000E+00
            typat      1  2
         wfoptalg1        114
         wfoptalg2          0
              wtk        0.00195    0.01563    0.01563    0.01563    0.00781    0.01172
                         0.04688    0.04688    0.04688    0.04688    0.04688    0.02344
                         0.01172    0.04688    0.04688    0.04688    0.02344    0.01172
                         0.04688    0.02344    0.00586    0.04688    0.09375    0.04688
                         0.04688    0.09375    0.04688    0.02344    0.01172
           xangst      0.0000000000E+00  0.0000000000E+00  0.0000000000E+00
                       1.4120000000E+00  1.4120000000E+00  1.4120000000E+00
            xcart      0.0000000000E+00  0.0000000000E+00  0.0000000000E+00
                       2.6682932996E+00  2.6682932996E+00  2.6682932996E+00
             xred      0.0000000000E+00  0.0000000000E+00  0.0000000000E+00
                       2.5000000000E-01  2.5000000000E-01  2.5000000000E-01
            znucl       31.00000   33.00000

 chkinp: Checking input parameters for consistency, jdtset=   1.

 chkinp: Checking input parameters for consistency, jdtset=   2.

== DATASET  1 ==================================================================
-   mpi_nproc: 232, omp_nthreads: -1 (-1 if OMP is not activated)

--- !DatasetInfo
iteration_state: {dtset: 1, }
dimensions: {natom: 2, nkpt: 29, mband: 18, nsppol: 1, nspinor: 1, nspden: 1, mpw: 584, }
cutoff_energies: {ecut:  45.0, pawecutdg:  -1.0, }
electrons: {nelect:   2.80000000E+01, charge:   0.00000000E+00, occopt:   1.00000000E+00, tsmear:   1.00000000E-02, }
meta: {optdriver: 0, ionmov: 0, optcell: 0, iscf: 7, paral_kgb: 1, }
...

 Real(R)+Recip(G) space primitive vectors, cartesian coordinates (Bohr,Bohr^-1):
 R(1)=  0.0000000  5.3365866  5.3365866  G(1)= -0.0936928  0.0936928  0.0936928
 R(2)=  5.3365866  0.0000000  5.3365866  G(2)=  0.0936928 -0.0936928  0.0936928
 R(3)=  5.3365866  5.3365866  0.0000000  G(3)=  0.0936928  0.0936928 -0.0936928
 Unit cell volume ucvol=  3.0396297E+02 bohr^3
 Angles (23,13,12)=  6.00000000E+01  6.00000000E+01  6.00000000E+01 degrees

 getcut: wavevector=  0.0000  0.0000  0.0000  ngfft=  48  48  48
         ecut(hartree)=     45.000   => boxcut(ratio)=   2.10616

--- Pseudopotential description ------------------------------------------------
- pspini: atom type   1  psp file is Ga.psp8
- pspatm: opening atomic psp file    Ga.psp8
- Ga    ONCVPSP-3.2.3.1  r_core=   1.66857   1.75011   1.90252
- 31.00000  13.00000    170504                znucl, zion, pspdat
    8   11    2    4       600   0.00000      pspcod,pspxc,lmax,lloc,mmax,r2well
    5.99000000000000    5.00000000000000    0.00000000000000   rchrg,fchrg,qchrg
     nproj     2     2     2
     extension_switch     1
  pspatm : epsatm=   24.69408336
         --- l  ekb(1:nproj) -->
             0    7.029782    1.144675
             1    6.805229    1.288163
             2   -8.378254   -2.820764
 pspatm: atomic psp has been read  and splines computed

- pspini: atom type   2  psp file is As.psp8
- pspatm: opening atomic psp file    As.psp8
- As    ONCVPSP-3.2.3.1  r_core=   1.76603   1.70395   1.80867
- 33.00000  15.00000    170703                znucl, zion, pspdat
    8   11    2    4       600   0.00000      pspcod,pspxc,lmax,lloc,mmax,r2well
    5.99000000000000    5.00000000000000    0.00000000000000   rchrg,fchrg,qchrg
     nproj     2     2     2
     extension_switch     1
  pspatm : epsatm=   28.90894586
         --- l  ekb(1:nproj) -->
             0    8.305110    0.874814
             1    4.929784    0.754498
             2  -10.035573   -4.078419
 pspatm: atomic psp has been read  and splines computed

[...]
           timopt          -1
           tolvrs1     1.00000000E-08
           tolvrs2     0.00000000E+00
            typat      1  2
         wfoptalg1        114
         wfoptalg2          0
              wtk        0.00195    0.01563    0.01563    0.01563    0.00781    0.01172
                         0.04688    0.04688    0.04688    0.04688    0.04688    0.02344
                         0.01172    0.04688    0.04688    0.04688    0.02344    0.01172
                         0.04688    0.02344    0.00586    0.04688    0.09375    0.04688
                         0.04688    0.09375    0.04688    0.02344    0.01172
           xangst      0.0000000000E+00  0.0000000000E+00  0.0000000000E+00
                       1.4120000000E+00  1.4120000000E+00  1.4120000000E+00
            xcart      0.0000000000E+00  0.0000000000E+00  0.0000000000E+00
                       2.6682932996E+00  2.6682932996E+00  2.6682932996E+00
             xred      0.0000000000E+00  0.0000000000E+00  0.0000000000E+00
                       2.5000000000E-01  2.5000000000E-01  2.5000000000E-01
            znucl       31.00000   33.00000

 Test the timer :
  a combined call timab(*,1,tsec) + timab(*,2,tsec) is

-
-  as well as % of the time and number of calls for node 0
-
-<BEGIN_TIMER mpi_nprocs = 232, omp_nthreads = 1, mpi_rank = 0>
- cpu_time =           87.8, wall_time =           91.3
-
-                                                                        (-1=no count)
- ugb_from_diago                   22.220   0.1        22.339   0.1              1      -1.00        0.99       0.99
- fourwf%(pot)                      1.227   0.0         1.227   0.0            172      -1.00        1.00       1.00
- pspini                            0.748   0.0         0.749   0.0              2      -1.00        1.00       1.00
- nonlop(apply)                     0.350   0.0         0.351   0.0            172      -1.00        1.00       1.00
- abinit(2)                         0.137   0.0         0.148   0.0              1      -1.00        0.93       0.93
- timing timab                      0.118   0.0         0.118   0.0             14      -1.00        1.00       1.00
- fourdp                            0.109   0.0         0.109   0.0            125      -1.00        1.00       1.00
- newkpt(excl. rwwf   )             0.099   0.0         0.099   0.0             -1      -1.00        1.00       1.00
- xc:pot/=fourdp                    0.064   0.0         0.064   0.0             10      -1.00        1.00       1.00
- invars2                           0.036   0.0         0.036   0.0              2      -1.00        1.00       1.00
- vtowfk(contrib)                   0.035   0.0         0.035   0.0              8      -1.00        1.00       1.00
- others (143)                      0.112   0.0         0.113   0.0             -1      -1.00        0.99       0.99
-<END_TIMER>
-
- subtotal                         25.299   0.1        25.432   0.1                                  0.99       0.99

- as well as % of the total time and number of calls

-<BEGIN_TIMER mpi_nprocs = 232, omp_nthreads = 1, mpi_rank = world>
- cpu_time =       21075.3, wall_time =       21180.2
-
-                                                                        (-1=no count)
- ugb_from_diago                 6121.729  29.0      6125.338  28.9            232      -1.00        1.00       1.00
- fourwf%(pot)                    284.588   1.4       284.667   1.3          40557      -1.00        1.00       1.00
- pspini                          173.164   0.8       173.462   0.8            464      -1.00        1.00       1.00
- nonlop(apply)                    82.559   0.4        82.614   0.4          40557      -1.00        1.00       1.00
- timing timab                     26.999   0.1        27.001   0.1           3248      -1.00        1.00       1.00
- fourdp                           22.829   0.1        22.882   0.1          29000      -1.00        1.00       1.00
- newkpt(excl. rwwf   )            20.805   0.1        20.808   0.1           -232      -1.00        1.00       1.00
- xc:pot/=fourdp                   14.476   0.1        14.547   0.1           2320      -1.00        1.00       1.00
- abinit(2)                        11.795   0.1        12.130   0.1            232      -1.00        0.97       0.97
- vtowfk(contrib)                   7.965   0.0         7.970   0.0           1856      -1.00        1.00       1.00
- invars2                           7.912   0.0         7.913   0.0            464      -1.00        1.00       1.00
- ewald                             5.279   0.0         5.281   0.0            464      -1.00        1.00       1.00
- symrhg(no FFT)                    4.554   0.0         4.558   0.0           1856      -1.00        1.00       1.00
- mkcore                            2.558   0.0         2.559   0.0            928      -1.00        1.00       1.00
- kpgsph                            2.538   0.0         2.541   0.0          27608      -1.00        1.00       1.00
- stress                            2.527   0.0         2.528   0.0            232      -1.00        1.00       1.00
- getghc-other                      2.482   0.0         2.419   0.0           -232      -1.00        1.03       1.03
- nonlop(forces)                    2.397   0.0         2.400   0.0           2320      -1.00        1.00       1.00
- ewald2 (+vdw_dftd)                1.674   0.0         1.675   0.0            232      -1.00        1.00       1.00
- scfcv-scprqt                      1.438   0.0         1.480   0.0           1856      -1.00        0.97       0.97
- forces                            1.355   0.0         1.372   0.0            232      -1.00        0.99       0.99
- setsym                            0.881   0.0         0.881   0.0            232      -1.00        1.00       1.00
- mkffnl                            0.288   0.0         0.290   0.0            696      -1.00        0.99       0.99
- prep_bandfft_tabs                 0.129   0.0         0.132   0.0            464      -1.00        0.98       0.98
- vtowfk(ssdiag)                    0.078   0.0         0.080   0.0           -232      -1.00        0.98       0.98
- vtowfk  (1)                       0.037   0.0         0.037   0.0           1856      -1.00        1.00       1.00
- others (128)                      0.008   0.0         0.008   0.0             -1      -1.00        0.99       0.99
-<END_TIMER>

- subtotal                       6815.930  32.3      6820.478  32.2                                  1.00       1.00

 Partitioning of abinit
- abinit                        21075.260 100.0     21180.240 100.0            232                   1.00       1.00

- abinit(1)                        47.825   0.2        54.789   0.3            232                   0.87       0.87
- abinit(2)                        11.795   0.1        12.130   0.1            232                   0.97       0.97
- indefo+macroin+invars2m           7.974   0.0         7.977   0.0            232                   1.00       1.00
- abinit(4)                        58.993   0.3        63.737   0.3            232                   0.93       0.93
- abinit(5)                        33.738   0.2        33.794   0.2            232                   1.00       1.00
- driver                        20934.650  99.3     21028.646  99.3            232                   1.00       1.00
- timing timab                     26.999   0.1        27.001   0.1           3248                   1.00       1.00

[...]

 Partitioning of driver
- driver                        20934.650  99.3     21028.646  99.3            232                   1.00       1.00

- driver(bef. select case)         14.432   0.1        35.611   0.2            464                   0.41       0.41
- (other)                       20919.898  99.3     20992.696  99.1             -1                   1.00       1.00

[...]

 Partitioning of gstateimg+gstate
- gstateimg                       613.031   2.9       656.577   3.1            232                   0.93       0.93

- gstate(1)                        27.211   0.1        27.355   0.1            464                   0.99       0.99
- gstate(pspini)                  173.227   0.8       173.529   0.8            232                   1.00       1.00
- gstate(...scfcv)                255.876   1.2       292.250   1.4            232                   0.88       0.88
- gstate(prtwf)                   153.500   0.7       160.141   0.8            232                   0.96       0.96

[...]

 Partitioning of scfcv_core
- scfcv_core                      254.895   1.2       291.177   1.4            232                   0.88       0.88

- scfcv_core(iniloop, setv          7.408   0.0         7.461   0.0           1856                   0.99       0.99
- scfcv_core(vtorho(f))           205.334   1.0       225.753   1.1           1856                   0.91       0.91
- scfcv_core(rhotov)               16.893   0.1        16.913   0.1           1856                   1.00       1.00
- scfcv_core(mix pot)              13.823   0.1        29.127   0.1           1624                   0.47       0.47
- scfcv_core(afterscfloop)          7.075   0.0         7.208   0.0            232                   0.98       0.98

[...]

 Partitioning of rhotov
- rhotov                           16.791   0.1        16.796   0.1           1856                   1.00       1.00

- rhotov(rhotoxc)                  12.253   0.1        12.253   0.1           1856                   1.00       1.00

[...]

 Partitioning of vtorho
- vtorho                          205.249   1.0       225.658   1.1           1856                   0.91       0.91

- vtowfk                          180.347   0.9       200.645   0.9           1856                   0.90       0.90
- vtorho(mkrho 2)                   7.835   0.0         7.899   0.0           3712                   0.99       0.99

[...]

 Partitioning of vtowfk
- vtowfk                          180.347   0.9       200.645   0.9           1856                   0.90       0.90

- vtowfk(2)                       172.343   0.8       192.636   0.9           -232                   0.89       0.89
- prep_fourwf%vtow                  7.745   0.0         7.745   0.0           1856                   1.00       1.00

[...]

 Partitioning of getghc
- getghc                          369.629   1.8       369.701   1.7          40557                   1.00       1.00

- fourwf%getghc                   284.588   1.4       284.667   1.3          40557                   1.00       1.00
- nonlop%getghc                    82.559   0.4        82.614   0.4          40557                   1.00       1.00

[...]

 Partitioning of fourwf (upwards partitioning)
- fourwf                          292.043   1.4       292.127   1.4          66541                   1.00       1.00

- fourwf%getghc                   284.588   1.4       284.667   1.3          40557                   1.00       1.00
- fourwf%prep_four                  7.455   0.0         7.460   0.0          25984                   1.00       1.00

[...]

 Partitioning of prep_getghc
- prep_getghc                     102.873   0.5       102.894   0.5          11600                   1.00       1.00

- prep_getghc(alltoall)             4.946   0.0         4.952   0.0          23200                   1.00       1.00
- prep_getghc(getghc - 2 )         93.626   0.4        93.641   0.4          11600                   1.00       1.00

[...]

 Partitioning of prep_fourwf
- prep_fourwf                       7.745   0.0         7.745   0.0           1856                   1.00       1.00

- fourwf%prep_four                  7.455   0.0         7.460   0.0          25984                   1.00       1.00

[...]

 Partitioning of prep_nonlop
- prep_nonlop                       4.592   0.0         4.609   0.0           2552                   1.00       1.00

[...]

 Partitioning of inwffil
- inwffil                          20.840   0.1        20.844   0.1            232                   1.00       1.00

- inwffil(call newkpt)             20.832   0.1        20.836   0.1            232                   1.00       1.00

[...]

 Partitioning of newkpt
- newkpt                           20.832   0.1        20.836   0.1            232                   1.00       1.00

- newkpt(after loop   )            20.697   0.1        20.699   0.1            232                   1.00       1.00

[...]

 Partitioning of newvtr
- newvtr                           13.602   0.1        28.874   0.1           1624                   0.47       0.47

- newvtr(aft. prcref_PMA)          10.314   0.0        25.578   0.1           1624                   0.40       0.40

[...]

 Partitioning of  fourdp (upwards partitioning)
- fourdp                           22.829   0.1        22.882   0.1          29000                   1.00       1.00

- fourdp%(other)                   22.829   0.1        22.882   0.1          29000                   1.00       1.00

[...]

 Partitioning of afterscfloop
- afterscfloop                      6.861   0.0         6.967   0.0            232                   0.98       0.98

- afterscfloop(forstr)              6.670   0.0         6.772   0.0            232                   0.98       0.98

[...]

 Partitioning of forstr
- forstr                            6.556   0.0         6.647   0.0            232                   0.99       0.99

[...]

 Partitioning of forstrnps
- forstrnps                         2.366   0.0         2.384   0.0            232                   0.99       0.99

[...]

 Partitioning of outscfcv
- outscfcv                          1.021   0.0         1.253   0.0            232                   0.81       0.81

[...]

 Partitioning of lobpcgwf2 core engine
- lobpcgwf2                       172.266   0.8       192.558   0.9           2320                   0.89       0.89

- lobpcg_run                      167.957   0.8       188.241   0.9           2320                   0.89       0.89
- lobpcg_Bortho                    28.536   0.1        40.888   0.2          11600                   0.70       0.70
- lobpcg_RayleighRitz              33.035   0.2        40.954   0.2          11600                   0.81       0.81
- lobpcg_run@getAX_BX             104.194   0.5       104.223   0.5          11600                   1.00       1.00
- lobpcg_RayleighRitz@hegv         15.582   0.1        23.488   0.1          11600                   0.66       0.66

- subtotal                        351.814   1.7       400.319   1.9                                  0.88       0.88

 Partitioning of low-level xgBlock type
- xgBlock_potrf                     8.979   0.0        21.328   0.1          11600                   0.42       0.42

- xgBlock_trsm                     12.217   0.1        12.236   0.1          34800                   1.00       1.00
- xgBlock_gemm                     22.704   0.1        22.816   0.1         127600                   1.00       1.00
- xgBlock_hegvx                    15.203   0.1        23.121   0.1           9280                   0.66       0.66

- subtotal                         52.509   0.2        60.584   0.3                                  0.87       0.87
-
-
- forstrnps:synchr                  0.337   0.0         0.337   0.0            464                   1.00       1.00
- alltoall%back_wf                  3.910   0.0         3.904   0.0         234784                   1.00       1.00
- alltoall%forw_wf                  0.467   0.0         0.438   0.0         208800                   1.07       1.07
- subtotal                          4.714   0.0         4.679   0.0                                  1.01       1.01

 Additional information
- timana(1)                         0.288   0.0         0.297   0.0            232                   0.97       0.97
- total timab                      27.745   0.1        27.747   0.1       46389968                   1.00       1.00
- fourwf                          292.043   1.4       292.127   1.4          66541                   1.00       1.00
- mklocl(2)                         0.354   0.0         0.354   0.0            232                   1.00       1.00
- nonlop(total)                    86.689   0.4        86.763   0.4          43109                   1.00       1.00
- xc:fourdp                        12.011   0.1        11.981   0.1          18560                   1.00       1.00
- read_rho                        178.024   0.8       178.130   0.8            232                   1.00       1.00

 timana : in multi dataset mode, the more detailed analysis is not done.

 Suggested references for the acknowledgment of ABINIT usage.

 Calculation completed.
.Delivered   0 WARNINGs and   0 COMMENTs to log file.