.Version 9.9.2 of ABINIT

 ABINIT is a project of the Universite Catholique de Louvain,
 Corning Inc. and other collaborators, see ~abinit/doc/developers/contributors.txt .
 acknowledgments of the ABINIT effort.

.Starting date : Fri 17 Feb 2023.
- ( at 10h25 )

 === Build Information ===
  Version       : 9.9.2
  Build target  : x86_64_linux_gnu11.2
  Build date    : 20230216

 === Optimizations ===
  Debug level        : basic
  Optimization level : standard
  Architecture       : amd_epyc

 === Multicore ===
  Parallel build : /opt/cray/pe/mpich/8.1.12/ofi/gnu/9.1
  Parallel I/O   :
  openMP support : no
  GPU support    :

 === Connectors / Fallbacks ===
  LINALG flavor  : netlib
  FFT flavor     : fftw3
  HDF5           : yes
  NetCDF         : yes
  NetCDF Fortran : yes
  Wannier90      : no

 === Experimental features ===
  Exports             :
  GW double-precision : no

 Default optimizations:
   --- None ---

 CPP options activated during the build:

                    CC_GNU                   CXX_GNU                    FC_GNU

 HAVE_FC_ALLOCATABLE_DT...             HAVE_FC_ASYNC         HAVE_FC_BACKTRACE

  HAVE_FC_COMMAND_ARGUMENT      HAVE_FC_COMMAND_LINE        HAVE_FC_CONTIGUOUS

           HAVE_FC_CPUTIME              HAVE_FC_EXIT             HAVE_FC_FLUSH

             HAVE_FC_GAMMA            HAVE_FC_GETENV   HAVE_FC_IEEE_ARITHMETIC

   HAVE_FC_IEEE_EXCEPTIONS          HAVE_FC_INT_QUAD             HAVE_FC_IOMSG

     HAVE_FC_ISO_C_BINDING  HAVE_FC_ISO_FORTRAN_2008        HAVE_FC_LONG_LINES

        HAVE_FC_MOVE_ALLOC  HAVE_FC_ON_THE_FLY_SHAPE           HAVE_FC_PRIVATE

         HAVE_FC_PROTECTED           HAVE_FC_SHIFTLR         HAVE_FC_STREAM_IO

            HAVE_FC_SYSTEM                HAVE_FFTW3            HAVE_FFTW3_MPI

          HAVE_FORTRAN2003                 HAVE_HDF5        HAVE_LIBPAW_ABINIT

       HAVE_MPI_IALLGATHER       HAVE_MPI_IALLREDUCE        HAVE_MPI_IALLTOALL

       HAVE_MPI_IALLTOALLV           HAVE_MPI_IBCAST         HAVE_MPI_IGATHERV

        HAVE_MPI_INTEGER16               HAVE_MPI_IO HAVE_MPI_TYPE_CREATE_S...

               HAVE_NETCDF       HAVE_NETCDF_FORTRAN             HAVE_OS_LINUX

         HAVE_TIMER_ABINIT

- input  file    -> run.abi
- output file    -> run.abo
- root for input  files -> indata_gs
- root for output files -> outdata_gs

-instrng: 27 lines of input have been read from file globals

-instrng: 28 lines of input have been read from file run.abi

 For atom type 1, psp file is Mg.psp8
 For atom type 2, psp file is O.psp8
  read the values zionpsp= 10.0 , pspcod=   8 , lmax=   1
  read the values zionpsp=  6.0 , pspcod=   8 , lmax=   2

 inpspheads: deduce mpsang = 3, n1xccc = 2501.

 invars1m : enter jdtset= 1

 symlatt: the Bravais lattice is cF (face-centered cubic)
  xred   is defined in input file
 ingeo: takes atomic coordinates from input array xred

--- !COMMENT
src_file: m_ingeo.F90
src_line: 890
message: |
    The tolerance on symmetries =   1.000E-05 is bigger than 1.0e-8.
    In order to avoid spurious effects, the atomic coordinates have been
    symmetrized before storing them in the dataset internal variable.
    So, do not be surprised by the fact that your input variables (xcart, xred, ...)
    do not correspond exactly to the ones echoed by ABINIT, the latter being used to do the calculations.
    This is not a problem per se.
    Still, in order to avoid this symmetrization (e.g. for specific debugging/development), decrease tolsym to 1.0e-8 or lower,
    or (much preferred) use input primitive vectors that are accurate to better than 1.0e-8.
    This message will only be printed once, even if there are other datasets where tolsym is bigger than 1.0e-8.
...

 symlatt: the Bravais lattice is cF (face-centered cubic)

 symlatt: the Bravais lattice is cF (face-centered cubic)
 symspgr: spgroup= 225  Fm -3 m   (=Oh^5)
 symspgr: optical characteristics = isotropic

 invars1m : enter jdtset= 2

 symlatt: the Bravais lattice is cF (face-centered cubic)
  xred   is defined in input file
 ingeo: takes atomic coordinates from input array xred

 symlatt: the Bravais lattice is cF (face-centered cubic)

 symlatt: the Bravais lattice is cF (face-centered cubic)
 symspgr: spgroup= 225  Fm -3 m   (=Oh^5)
 symspgr: optical characteristics = isotropic
 invars2: read the value of fband=  2.00000000E+00 from input file.
 invars2: take the default value of fband=  1.25000000E-01
 getmpw sequential formula gave: 1819

 Searching for all possible proc distributions for this input with #CPUs<=128:

 |    1<<   29|    1<<   16|    1<<   12|    1<<   12|    1<<  128|  <=   128|
 |          29|           2|           2|           6|         116|   105.981|
 |          29|           2|           2|           2|         116|   104.897|
 |          29|           2|           2|           1|         116|   103.283|
 |          29|           4|           1|          12|         116|   102.133|
 |          29|           4|           1|           6|         116|   101.868|
 |          29|           4|           1|           4|         116|   101.604|
 |          16|           2|           4|           1|         128|   101.370|
 |          16|           8|           1|          12|         128|   101.187|
 |          29|           4|           1|           2|         116|   100.810|
 |          29|           1|           4|           1|         116|   100.450|
 Only the best possible choices for nproc are printed...

 >>> Possible (best) choices for the number of bands (nband) are:
     with: np_spkpt=29 npfft=2
 >>> The present nband value (    12) seems to be a good choice!

 For input ecut=  4.500000E+01 best grid ngfft=      36      36      36
       max ecut=  5.045034E+01

 ==== FFT mesh ====
  FFT mesh divisions ........................    36   36   36
  Augmented FFT divisions ...................    37   37   36
  FFT algorithm .............................   312
  FFT cache size ............................    16
 Relative gap for number of plane waves between process (%):  4.03
 Relative gap for number of plane waves between process (%):  1.42
 Relative gap for number of plane waves between process (%):  0.11
 Relative gap for number of plane waves between process (%):  0.65
 Relative gap for number of plane waves between process (%):  0.67
 Relative gap for number of plane waves between process (%):  1.75
 Relative gap for number of plane waves between process (%):  0.44
 Relative gap for number of plane waves between process (%):  1.09
 Relative gap for number of plane waves between process (%):  0.11
 Relative gap for number of plane waves between process (%):  0.55
 Relative gap for number of plane waves between process (%):  0.33
 Relative gap for number of plane waves between process (%):  0.98
 Relative gap for number of plane waves between process (%):  0.44
 Relative gap for number of plane waves between process (%):  0.33
 Relative gap for number of plane waves between process (%):  0.55
 Relative gap for number of plane waves between process (%):  0.44
 Relative gap for number of plane waves between process (%):  0.88
 Relative gap for number of plane waves between process (%):  1.34
 Relative gap for number of plane waves between process (%):  0.00
 Relative gap for number of plane waves between process (%):  0.66
 Relative gap for number of plane waves between process (%):  0.00
 Relative gap for number of plane waves between process (%):  0.33
 Relative gap for number of plane waves between process (%):  0.55
 Relative gap for number of plane waves between process (%):  0.00
 Relative gap for number of plane waves between process (%):  0.11
 Relative gap for number of plane waves between process (%):  0.33
 Relative gap for number of plane waves between process (%):  0.33
 Relative gap for number of plane waves between process (%):  0.00
 Relative gap for number of plane waves between process (%):  0.00
 getmpw: optimal value of mpw= 469

--- !WARNING
src_file: m_mpinfo.F90
src_line: 2337
message: |
    nproc_spkpt= 128 >= nkpt= 29* nsppol= 1
     Ignore this warning if this is not a GS run
...

 For input ecut=  4.500000E+01 best grid ngfft=      36      36      36
       max ecut=  5.045034E+01

 ==== FFT mesh ====
  FFT mesh divisions ........................    36   36   36
  Augmented FFT divisions ...................    37   37   36
  FFT algorithm .............................   312
  FFT cache size ............................    16
 getmpw: optimal value of mpw= 1840

 DATASET    1 : space group Fm -3 m (#225); Bravais cF (face-center cubic)

 getdim_nloc: deduce lmnmax  =  13, lnmax  =   5,
                      lmnmaxso=  13, lnmaxso=   5.
     intxc =       0    ionmov =       0      iscf =       7    lmnmax =       5
     lnmax =       5     mgfft =      36  mpssoang =       3    mqgrid =    3001
     natom =       2  nloc_mem =       1    nspden =       1   nspinor =       1
    nsppol =       1      nsym =      48    n1xccc =    2501    ntypat =       2
    occopt =       1   xclevel =       2
-    mband =          12        mffmem =           1         mkmem =           1
       mpw =         469          nfft =       23328          nkpt =          29
  Rough estimation (10% accuracy) of disk space for files :

 The job will continue.

 DATASET    2 : space group Fm -3 m (#225); Bravais cF (face-center cubic)

 getdim_nloc: deduce lmnmax  =  13, lnmax  =   5,
                      lmnmaxso=  13, lnmaxso=   5.
     intxc =       0    ionmov =       0      iscf =       7    lmnmax =       5
     lnmax =       5     mgfft =      36  mpssoang =       3    mqgrid =    3001
     natom =       2  nloc_mem =       1    nspden =       1   nspinor =       1
    nsppol =       1      nsym =      48    n1xccc =    2501    ntypat =       2
    occopt =       1   xclevel =       2
-    mband =           9        mffmem =           1         mkmem =           1
       mpw =        1840          nfft =       46656          nkpt =          29
  Rough estimation (10% accuracy) of disk space for files :

------------- Echo of variables that govern the present computation ------------
-
- outvars: echo of selected default values
-   iomode0 =  0 , fftalg0 =312 , wfoptalg0 =  0
-
- outvars: echo of global parameters not present in the input file
-  max_nthreads =    0
-
 -outvars: echo values of preprocessed input variables --------

 These variables are accessible in NetCDF format (outdata_gs_OUT.nc)

-          iomode1          1
-          iomode2          0
            acell      7.9614161978E+00  7.9614161978E+00  7.9614161978E+00 Bohr
              amu      2.43050000E+01  1.59994000E+01
        autoparal1          1
        autoparal2          0
           bandpp1          6
           bandpp2          1
     densfor_pred1          6
     densfor_pred2          2
           diemac      1.20000000E+01
             ecut      4.50000000E+01 Hartree
-          fftalg         312
           getden1          0
           getden2         -1
           istwfk        1    0    0    0    1    0    0    0    0    0
                         0    0    0    0    0    0    0    0    0    0
[...]
 kpt#   6, nband= 12, wtk=  0.01172, kpt=  0.1250  0.1250  0.0000 (reduced coord)
  -2.48563   -1.26432   -1.26404   -1.26404   -0.45001    0.13586    0.16501    0.16501
   0.39251    0.67806    0.77765    0.77765
 kpt#   7, nband= 12, wtk=  0.04688, kpt=  0.2500  0.1250  0.0000 (reduced coord)
  -2.48554   -1.26513   -1.26419   -1.26413   -0.43757    0.09098    0.15590    0.15605
   0.44000    0.62779    0.77781    0.79522
 kpt#   8, nband= 12, wtk=  0.04688, kpt=  0.3750  0.1250  0.0000 (reduced coord)
  -2.48543   -1.26617   -1.26431   -1.26429   -0.42042    0.04244    0.14265    0.14832
   0.47923    0.61331    0.74085    0.79648
 kpt#   9, nband= 12, wtk=  0.04688, kpt=  0.5000  0.1250  0.0000 (reduced coord)
  -2.48536   -1.26679   -1.26447   -1.26431   -0.40875    0.01475    0.13197    0.14590
   0.48980    0.62913    0.72163    0.78867
 kpt#  10, nband= 12, wtk=  0.04688, kpt= -0.3750  0.1250  0.0000 (reduced coord)
  -2.48538   -1.26665   -1.26454   -1.26421   -0.41132    0.02101    0.12961    0.14998
   0.48944    0.62651    0.72527    0.79138
 kpt#  11, nband= 12, wtk=  0.04688, kpt= -0.2500  0.1250  0.0000 (reduced coord)
  -2.48547   -1.26584   -1.26445   -1.26405   -0.42605    0.05758    0.13760    0.15857
   0.46995    0.61925    0.74825    0.81002
 kpt#  12, nband= 12, wtk=  0.02344, kpt= -0.1250  0.1250  0.0000 (reduced coord)
  -2.48558   -1.26488   -1.26420   -1.26394   -0.44259    0.10531    0.15442    0.16693
   0.42115    0.65062    0.77118    0.79820
 kpt#  13, nband= 12, wtk=  0.01172, kpt=  0.2500  0.2500  0.0000 (reduced coord)
  -2.48549   -1.26530   -1.26441   -1.26441   -0.43013    0.07765    0.14669    0.14669
   0.47063    0.58768    0.74429    0.81755
 kpt#  14, nband= 12, wtk=  0.04688, kpt=  0.3750  0.2500  0.0000 (reduced coord)
  -2.48540   -1.26593   -1.26464   -1.26456   -0.41719    0.05063    0.13013    0.13883
   0.51119    0.56830    0.69424    0.82912
 kpt#  15, nband= 12, wtk=  0.04688, kpt=  0.5000  0.2500  0.0000 (reduced coord)
  -2.48533   -1.26636   -1.26499   -1.26457   -0.40603    0.03449    0.10395    0.13656
   0.53117    0.59976    0.66298    0.82300
 kpt#  16, nband= 12, wtk=  0.04688, kpt= -0.3750  0.2500  0.0000 (reduced coord)
  -2.48532   -1.26631   -1.26528   -1.26442   -0.40413    0.03673    0.08713    0.14098
   0.53980    0.62076    0.65647    0.81624
 kpt#  17, nband= 12, wtk=  0.02344, kpt= -0.2500  0.2500  0.0000 (reduced coord)
  -2.48538   -1.26608   -1.26507   -1.26421   -0.41284    0.04593    0.10097    0.14997
   0.52232    0.60812    0.68976    0.81873
 kpt#  18, nband= 12, wtk=  0.01172, kpt=  0.3750  0.3750  0.0000 (reduced coord)
  -2.48534   -1.26619   -1.26478   -1.26478   -0.40995    0.03812    0.13058    0.13058
   0.53019    0.53138    0.66612    0.85507
 kpt#  19, nband= 12, wtk=  0.04688, kpt=  0.5000  0.3750  0.0000 (reduced coord)
  -2.48529   -1.26636   -1.26507   -1.26483   -0.40295    0.03250    0.11083    0.12787
   0.52934    0.55852    0.65004    0.85669
 kpt#  20, nband= 12, wtk=  0.02344, kpt= -0.3750  0.3750  0.0000 (reduced coord)
  -2.48528   -1.26608   -1.26561   -1.26468   -0.40055    0.04655    0.07484    0.13198
   0.54654    0.60686    0.63391    0.84009
 kpt#  21, nband= 12, wtk=  0.00586, kpt=  0.5000  0.5000  0.0000 (reduced coord)
  -2.48528   -1.26654   -1.26493   -1.26493   -0.40155    0.02510    0.12443    0.12443
   0.51246    0.54109    0.65418    0.87075
 kpt#  22, nband= 12, wtk=  0.04688, kpt=  0.3750  0.2500  0.1250 (reduced coord)
  -2.48545   -1.26568   -1.26460   -1.26422   -0.42478    0.06356    0.13168    0.15126
   0.48609    0.59841    0.72893    0.82027
 kpt#  23, nband= 12, wtk=  0.09375, kpt=  0.5000  0.2500  0.1250 (reduced coord)
  -2.48536   -1.26626   -1.26489   -1.26437   -0.41084    0.03836    0.11084    0.14212
   0.52314    0.60309    0.68615    0.80478
 kpt#  24, nband= 12, wtk=  0.04688, kpt= -0.3750  0.2500  0.1250 (reduced coord)
  -2.48533   -1.26651   -1.26497   -1.26447   -0.40466    0.02765    0.10333    0.13778
   0.52986    0.62210    0.67051    0.79556
 kpt#  25, nband= 12, wtk=  0.04688, kpt=  0.5000  0.3750  0.1250 (reduced coord)
  -2.48533   -1.26618   -1.26500   -1.26470   -0.40737    0.04061    0.11197    0.12828
   0.55171    0.55835    0.65844    0.81676
 kpt#  26, nband= 12, wtk=  0.09375, kpt= -0.3750  0.3750  0.1250 (reduced coord)
  -2.48529   -1.26612   -1.26542   -1.26477   -0.40122    0.04593    0.08315    0.12346
   0.56442    0.60489    0.63402    0.78506
 kpt#  27, nband= 12, wtk=  0.04688, kpt= -0.2500  0.3750  0.1250 (reduced coord)
  -2.48531   -1.26602   -1.26554   -1.26460   -0.40274    0.05023    0.07555    0.13054
   0.56917    0.60549    0.64191    0.78689
 kpt#  28, nband= 12, wtk=  0.02344, kpt= -0.3750  0.5000  0.1250 (reduced coord)
  -2.48528   -1.26630   -1.26517   -1.26497   -0.40040    0.03600    0.10450    0.11653
   0.54402    0.57340    0.64199    0.81129
 kpt#  29, nband= 12, wtk=  0.01172, kpt= -0.2500  0.5000  0.2500 (reduced coord)
  -2.48528   -1.26573   -1.26573   -1.26501   -0.39923    0.06614    0.06614    0.10903
   0.60262    0.60262    0.62129    0.74495
 Total charge density [el/Bohr^3]
)     Maximum=    3.3939E+00  at reduced coord.    0.0833    0.9722    0.4722
)Next maximum=    3.3939E+00  at reduced coord.    0.9722    0.9722    0.4722
)     Minimum=    9.9286E-03  at reduced coord.    0.2500    0.2500    0.2500
)Next minimum=    9.9286E-03  at reduced coord.    0.7500    0.7500    0.2500
   Integrated=    1.6000E+01

 Cartesian components of stress tensor (hartree/bohr^3)
  sigma(1 1)= -1.50811752E-04  sigma(3 2)=  0.00000000E+00
  sigma(2 2)= -1.50811752E-04  sigma(3 1)=  0.00000000E+00
  sigma(3 3)= -1.50811752E-04  sigma(2 1)=  0.00000000E+00

-Cartesian components of stress tensor (GPa)         [Pressure=  4.4370E+00 GPa]
- sigma(1 1)= -4.43703420E+00  sigma(3 2)=  0.00000000E+00
- sigma(2 2)= -4.43703420E+00  sigma(3 1)=  0.00000000E+00
- sigma(3 3)= -4.43703420E+00  sigma(2 1)=  0.00000000E+00

== DATASET  2 ==================================================================
-   mpi_nproc: 128, omp_nthreads: -1 (-1 if OMP is not activated)

 mkfilename : getden/=0, take file _DEN from output of DATASET   1.

 getdim_nloc: deduce lmnmax  =  13, lnmax  =   5,
                      lmnmaxso=  13, lnmaxso=   5.
 Exchange-correlation functional for the present dataset will be:
  GGA: Perdew-Burke-Ernzerhof functional - ixc=11
 Citation for XC functional:
  J.P.Perdew, K.Burke, M.Ernzerhof, PRL 77, 3865 (1996)

.Using single precision arithmetic; gwpc =  4

- Reading GS density from: outdata_gs_DS1_DEN

 getcut: wavevector=  0.0000  0.0000  0.0000  ngfft=  36  36  36
         ecut(hartree)=     45.000   => boxcut(ratio)=   2.11766

 ==== Coarse FFT mesh for the wavefunctions ====
  FFT mesh divisions ........................    36   36   36
  Augmented FFT divisions ...................    37   37   36
  FFT algorithm .............................   312
  FFT cache size ............................    16

 ==== Dense FFT mesh for densities and potentials ====
  FFT mesh divisions ........................    36   36   36
  Augmented FFT divisions ...................    37   37   36
  FFT algorithm .............................   312
  FFT cache size ............................    16
 About to read data(r) from: outdata_gs_DS1_DEN
 Total charge density [el/Bohr^3]
)     Maximum=    3.3939E+00  at reduced coord.    0.9722    0.9722    0.9722
)     Minimum=    9.9286E-03  at reduced coord.    0.2500    0.2500    0.2500
   Integrated=    1.6000E+01
 Comparing input crystal with DEN crystal
 Writing wavefunctions to file: outdata_gs_DS2_WFK

 Fermi level: 7.0992  (eV)

 === KS gaps after direct diagonalization ===
 Direct band gap semiconductor
 Fundamental gap:     4.761 (eV)
   VBM:     4.719 (eV) at k: [ 0.0000E+00,  0.0000E+00,  0.0000E+00]
   CBM:     9.480 (eV) at k: [ 0.0000E+00,  0.0000E+00,  0.0000E+00]
 Direct gap:         4.761 (eV) at k: [ 0.0000E+00,  0.0000E+00,  0.0000E+00]

== END DATASET(S) ==============================================================

 -outvars: echo values of variables after computation  --------

 These variables are accessible in NetCDF format (outdata_gs_OUT.nc)

-          iomode1          1
-          iomode2          0
            acell      7.9614161978E+00  7.9614161978E+00  7.9614161978E+00 Bohr
              amu      2.43050000E+01  1.59994000E+01
        autoparal1          1
        autoparal2          0
           bandpp1          6
           bandpp2          1
     densfor_pred1          6
     densfor_pred2          2
           diemac      1.20000000E+01
             ecut      4.50000000E+01 Hartree
           etotal1    -7.6051159990E+01
           etotal2     0.0000000000E+00
            fcart1    -0.0000000000E+00 -0.0000000000E+00 -0.0000000000E+00
                      -0.0000000000E+00 -0.0000000000E+00 -0.0000000000E+00
            fcart2     0.0000000000E+00  0.0000000000E+00  0.0000000000E+00
                       0.0000000000E+00  0.0000000000E+00  0.0000000000E+00
-          fftalg         312
           getden1          0
           getden2         -1
           istwfk        1    0    0    0    1    0    0    0    0    0
                         0    0    0    0    0    0    0    0    0    0
                         1    0    0    0    0    0    0    0    0
              ixc          11
           jdtset        1    2
              kpt      0.00000000E+00  0.00000000E+00  0.00000000E+00
                       1.25000000E-01  0.00000000E+00  0.00000000E+00
                       2.50000000E-01  0.00000000E+00  0.00000000E+00
                       3.75000000E-01  0.00000000E+00  0.00000000E+00
                       5.00000000E-01  0.00000000E+00  0.00000000E+00
                       1.25000000E-01  1.25000000E-01  0.00000000E+00
                       2.50000000E-01  1.25000000E-01  0.00000000E+00
                       3.75000000E-01  1.25000000E-01  0.00000000E+00
                       5.00000000E-01  1.25000000E-01  0.00000000E+00
                      -3.75000000E-01  1.25000000E-01  0.00000000E+00
                      -2.50000000E-01  1.25000000E-01  0.00000000E+00
                      -1.25000000E-01  1.25000000E-01  0.00000000E+00
                       2.50000000E-01  2.50000000E-01  0.00000000E+00
                       3.75000000E-01  2.50000000E-01  0.00000000E+00
                       5.00000000E-01  2.50000000E-01  0.00000000E+00
                      -3.75000000E-01  2.50000000E-01  0.00000000E+00
                      -2.50000000E-01  2.50000000E-01  0.00000000E+00
                       3.75000000E-01  3.75000000E-01  0.00000000E+00
                       5.00000000E-01  3.75000000E-01  0.00000000E+00
                      -3.75000000E-01  3.75000000E-01  0.00000000E+00
                       5.00000000E-01  5.00000000E-01  0.00000000E+00
                       3.75000000E-01  2.50000000E-01  1.25000000E-01
                       5.00000000E-01  2.50000000E-01  1.25000000E-01
                      -3.75000000E-01  2.50000000E-01  1.25000000E-01
                       5.00000000E-01  3.75000000E-01  1.25000000E-01
                      -3.75000000E-01  3.75000000E-01  1.25000000E-01
                      -2.50000000E-01  3.75000000E-01  1.25000000E-01
                      -3.75000000E-01  5.00000000E-01  1.25000000E-01
                      -2.50000000E-01  5.00000000E-01  2.50000000E-01
         kptrlatt        8    0    0      0    8    0      0    0    8
          kptrlen      4.50365711E+01
P           mkmem           1
            natom           2
            nband1         12
            nband2          9
           ndtset           2
            ngfft          36      36      36
             nkpt          29
-          npband1          2
-          npband2          1
-           npfft1          2
-           npfft2          1
-        np_spkpt1         29
-        np_spkpt2          1
            nstep          50
             nsym          48
           ntypat           2
              occ1     2.000000  2.000000  2.000000  2.000000  2.000000  2.000000
                       2.000000  2.000000  0.000000  0.000000  0.000000  0.000000
              occ2     2.000000  2.000000  2.000000  2.000000  2.000000  2.000000
                       2.000000  2.000000  0.000000
        optdriver1          0
        optdriver2          6
           ortalg1         -2
           ortalg2          2
        paral_kgb1          1
        paral_kgb2          0
            rprim      0.0000000000E+00  5.0000000000E-01  5.0000000000E-01
                       5.0000000000E-01  0.0000000000E+00  5.0000000000E-01
                       5.0000000000E-01  5.0000000000E-01  0.0000000000E+00
          spgroup         225
           strten1    -1.5081175248E-04 -1.5081175248E-04 -1.5081175248E-04
                       0.0000000000E+00  0.0000000000E+00  0.0000000000E+00
           strten2     0.0000000000E+00  0.0000000000E+00  0.0000000000E+00
                       0.0000000000E+00  0.0000000000E+00  0.0000000000E+00
           symrel      1  0  0   0  1  0   0  0  1      -1  0  0   0 -1  0   0  0 -1
                       0 -1  1   0 -1  0   1 -1  0       0  1 -1   0  1  0  -1  1  0
                      -1  0  0  -1  0  1  -1  1  0       1  0  0   1  0 -1   1 -1  0
                       0  1 -1   1  0 -1   0  0 -1       0 -1  1  -1  0  1   0  0  1
                      -1  0  0  -1  1  0  -1  0  1       1  0  0   1 -1  0   1  0 -1
                       0 -1  1   1 -1  0   0 -1  0       0  1 -1  -1  1  0   0  1  0
                       1  0  0   0  0  1   0  1  0      -1  0  0   0  0 -1   0 -1  0
                       0  1 -1   0  0 -1   1  0 -1       0 -1  1   0  0  1  -1  0  1
                      -1  0  1  -1  1  0  -1  0  0       1  0 -1   1 -1  0   1  0  0
                       0 -1  0   1 -1  0   0 -1  1       0  1  0  -1  1  0   0  1 -1
                       1  0 -1   0  0 -1   0  1 -1      -1  0  1   0  0  1   0 -1  1
                       0  1  0   0  0  1   1  0  0       0 -1  0   0  0 -1  -1  0  0
                       1  0 -1   0  1 -1   0  0 -1      -1  0  1   0 -1  1   0  0  1
                       0 -1  0   0 -1  1   1 -1  0       0  1  0   0  1 -1  -1  1  0
                      -1  0  1  -1  0  0  -1  1  0       1  0 -1   1  0  0   1 -1  0
                       0  1  0   1  0  0   0  0  1       0 -1  0  -1  0  0   0  0 -1
                       0  0 -1   0  1 -1   1  0 -1       0  0  1   0 -1  1  -1  0  1
                       1 -1  0   0 -1  1   0 -1  0      -1  1  0   0  1 -1   0  1  0
                       0  0  1   1  0  0   0  1  0       0  0 -1  -1  0  0   0 -1  0
                      -1  1  0  -1  0  0  -1  0  1       1 -1  0   1  0  0   1  0 -1
                       0  0  1   0  1  0   1  0  0       0  0 -1   0 -1  0  -1  0  0
                       1 -1  0   0 -1  0   0 -1  1      -1  1  0   0  1  0   0  1 -1
                       0  0 -1   1  0 -1   0  1 -1       0  0  1  -1  0  1   0 -1  1
                      -1  1  0  -1  0  1  -1  0  0       1 -1  0   1  0 -1   1  0  0
           timopt          -1
           tolvrs1     1.00000000E-08
           tolvrs2     0.00000000E+00
            typat      1  2
         wfoptalg1        114
         wfoptalg2          0
              wtk        0.00195    0.01563    0.01563    0.01563    0.00781    0.01172
                         0.04688    0.04688    0.04688    0.04688    0.04688    0.02344
                         0.01172    0.04688    0.04688    0.04688    0.02344    0.01172
                         0.04688    0.02344    0.00586    0.04688    0.09375    0.04688
                         0.04688    0.09375    0.04688    0.02344    0.01172
           xangst      0.0000000000E+00  0.0000000000E+00  0.0000000000E+00
                       2.1065000000E+00  2.1065000000E+00  2.1065000000E+00
            xcart      0.0000000000E+00  0.0000000000E+00  0.0000000000E+00
                       3.9807080989E+00  3.9807080989E+00  3.9807080989E+00
             xred      0.0000000000E+00  0.0000000000E+00  0.0000000000E+00
                       5.0000000000E-01  5.0000000000E-01  5.0000000000E-01
            znucl       12.00000    8.00000

 Calculation completed.
.Delivered   0 WARNINGs and   0 COMMENTs to log file.

--- !FinalSummary
program: abinit
version: 9.9.2
start_datetime: Fri Feb 17 10:25:15 2023
end_datetime: Fri Feb 17 10:25:23 2023
overall_cpu_time:         974.9
overall_wall_time:        1025.2
exit_requested_by_user: no
timelimit: 0
pseudos:
    Mg  : d65d9c3e5a38003fc995d0911d5c6f77
    O   : abbcf0645b4a6d69360cd16bcad3e730
usepaw: 0
mpi_procs: 128
omp_threads: 1
num_warnings: 0
num_comments: 0
...