.Version 9.9.2 of ABINIT

 ABINIT is a project of the Universite Catholique de Louvain,
 Corning Inc. and other collaborators, see ~abinit/doc/developers/contributors.txt .
 acknowledgments of the ABINIT effort.

.Starting date : Sat 11 Feb 2023.
- ( at 20h52 )

- input  file    -> run.abi
- output file    -> run.abo
- root for input  files -> indata_gs
- root for output files -> outdata_gs

 DATASET    1 : space group Fd -3 m (#227); Bravais cF (face-center cubic)
     intxc =       0    ionmov =       0      iscf =       7    lmnmax =       6
     lnmax =       6     mgfft =      30  mpssoang =       3    mqgrid =    3001
     natom =       2  nloc_mem =       1    nspden =       1   nspinor =       1
    nsppol =       1      nsym =      48    n1xccc =    2501    ntypat =       1
    occopt =       1   xclevel =       2
-    mband =           8        mffmem =           1         mkmem =           1
       mpw =         126          nfft =       13500          nkpt =          29
  Rough estimation (10% accuracy) of disk space for files :

 DATASET    2 : space group Fd -3 m (#227); Bravais cF (face-center cubic)
     intxc =       0    ionmov =       0      iscf =       7    lmnmax =       6
     lnmax =       6     mgfft =      30  mpssoang =       3    mqgrid =    3001
     natom =       2  nloc_mem =       1    nspden =       1   nspinor =       1
    nsppol =       1      nsym =      48    n1xccc =    2501    ntypat =       1
    occopt =       1   xclevel =       2
-    mband =           5        mffmem =           1         mkmem =           1
       mpw =         995          nfft =       27000          nkpt =          29
  Rough estimation (10% accuracy) of disk space for files :

------------- Echo of variables that govern the present computation ------------
-
- outvars: echo of selected default values
-   iomode0 =  0 , fftalg0 =312 , wfoptalg0 =  0
-
- outvars: echo of global parameters not present in the input file
-  max_nthreads =    0
-
 -outvars: echo values of preprocessed input variables --------
-          iomode1          1
-          iomode2          0
            acell      1.0260000000E+01  1.0260000000E+01  1.0260000000E+01 Bohr
              amu      2.80855000E+01
        autoparal1          1
        autoparal2          0
           bandpp1          2
           bandpp2          1
     densfor_pred1          6
     densfor_pred2          2
           diemac      1.20000000E+01
             ecut      1.80000000E+01 Hartree
-          fftalg         312
           getden1          0
           getden2         -1
           istwfk        1    0    0    0    1    0    0    0    0    0
                         0    0    0    0    0    0    0    0    0    0
                         1    0    0    0    0    0    0    0    0
              ixc          11
           jdtset        1    2
              kpt      0.00000000E+00  0.00000000E+00  0.00000000E+00
                       1.25000000E-01  0.00000000E+00  0.00000000E+00
                       2.50000000E-01  0.00000000E+00  0.00000000E+00
                       3.75000000E-01  0.00000000E+00  0.00000000E+00
                       5.00000000E-01  0.00000000E+00  0.00000000E+00
                       1.25000000E-01  1.25000000E-01  0.00000000E+00
                       2.50000000E-01  1.25000000E-01  0.00000000E+00
                       3.75000000E-01  1.25000000E-01  0.00000000E+00
                       5.00000000E-01  1.25000000E-01  0.00000000E+00
                      -3.75000000E-01  1.25000000E-01  0.00000000E+00
                      -2.50000000E-01  1.25000000E-01  0.00000000E+00
                      -1.25000000E-01  1.25000000E-01  0.00000000E+00
                       2.50000000E-01  2.50000000E-01  0.00000000E+00
                       3.75000000E-01  2.50000000E-01  0.00000000E+00
                       5.00000000E-01  2.50000000E-01  0.00000000E+00
                      -3.75000000E-01  2.50000000E-01  0.00000000E+00
                      -2.50000000E-01  2.50000000E-01  0.00000000E+00
                       3.75000000E-01  3.75000000E-01  0.00000000E+00
                       5.00000000E-01  3.75000000E-01  0.00000000E+00
                      -3.75000000E-01  3.75000000E-01  0.00000000E+00
                       5.00000000E-01  5.00000000E-01  0.00000000E+00
                       3.75000000E-01  2.50000000E-01  1.25000000E-01
                       5.00000000E-01  2.50000000E-01  1.25000000E-01
                      -3.75000000E-01  2.50000000E-01  1.25000000E-01
                       5.00000000E-01  3.75000000E-01  1.25000000E-01
                      -3.75000000E-01  3.75000000E-01  1.25000000E-01
                      -2.50000000E-01  3.75000000E-01  1.25000000E-01
                      -3.75000000E-01  5.00000000E-01  1.25000000E-01
                      -2.50000000E-01  5.00000000E-01  2.50000000E-01
         kptrlatt        8    0    0      0    8    0      0    0    8
          kptrlen      5.80393246E+01
P           mkmem           1
            natom           2
            nband1          8
            nband2          5
           ndtset           2
            ngfft          30      30      30
             nkpt          29
-          npband1          4
-          npband2          1
-           npfft1          2
-           npfft2          1
-        np_spkpt1         29
-        np_spkpt2          1
            nstep          50
             nsym          48
           ntypat           1
              occ1     2.000000  2.000000  2.000000  2.000000  0.000000  0.000000
                       0.000000  0.000000
              occ2     2.000000  2.000000  2.000000  2.000000  0.000000
        optdriver1          0
        optdriver2          6
           ortalg1         -2
           ortalg2          2
        paral_kgb1          1
        paral_kgb2          0
            rprim      0.0000000000E+00  5.0000000000E-01  5.0000000000E-01
                       5.0000000000E-01  0.0000000000E+00  5.0000000000E-01
                       5.0000000000E-01  5.0000000000E-01  0.0000000000E+00
          spgroup         227
           symrel      1  0  0   0  1  0   0  0  1      -1  0  0   0 -1  0   0  0 -1
                       0 -1  1   0 -1  0   1 -1  0       0  1 -1   0  1  0  -1  1  0
                      -1  0  0  -1  0  1  -1  1  0       1  0  0   1  0 -1   1 -1  0
                       0  1 -1   1  0 -1   0  0 -1       0 -1  1  -1  0  1   0  0  1
                      -1  0  0  -1  1  0  -1  0  1       1  0  0   1 -1  0   1  0 -1
                       0 -1  1   1 -1  0   0 -1  0       0  1 -1  -1  1  0   0  1  0
                       1  0  0   0  0  1   0  1  0      -1  0  0   0  0 -1   0 -1  0
                       0  1 -1   0  0 -1   1  0 -1       0 -1  1   0  0  1  -1  0  1
                      -1  0  1  -1  1  0  -1  0  0       1  0 -1   1 -1  0   1  0  0
                       0 -1  0   1 -1  0   0 -1  1       0  1  0  -1  1  0   0  1 -1
                       1  0 -1   0  0 -1   0  1 -1      -1  0  1   0  0  1   0 -1  1
                       0  1  0   0  0  1   1  0  0       0 -1  0   0  0 -1  -1  0  0
                       1  0 -1   0  1 -1   0  0 -1      -1  0  1   0 -1  1   0  0  1
                       0 -1  0   0 -1  1   1 -1  0       0  1  0   0  1 -1  -1  1  0
                      -1  0  1  -1  0  0  -1  1  0       1  0 -1   1  0  0   1 -1  0
                       0  1  0   1  0  0   0  0  1       0 -1  0  -1  0  0   0  0 -1
                       0  0 -1   0  1 -1   1  0 -1       0  0  1   0 -1  1  -1  0  1
                       1 -1  0   0 -1  1   0 -1  0      -1  1  0   0  1 -1   0  1  0
                       0  0  1   1  0  0   0  1  0       0  0 -1  -1  0  0   0 -1  0
                      -1  1  0  -1  0  0  -1  0  1       1 -1  0   1  0  0   1  0 -1
                       0  0  1   0  1  0   1  0  0       0  0 -1   0 -1  0  -1  0  0
                       1 -1  0   0 -1  0   0 -1  1      -1  1  0   0  1  0   0  1 -1
                       0  0 -1   1  0 -1   0  1 -1       0  0  1  -1  0  1   0 -1  1
                      -1  1  0  -1  0  1  -1  0  0       1 -1  0   1  0 -1   1  0  0
           timopt          -1
            tnons      0.0000000  0.0000000  0.0000000     0.2500000  0.2500000  0.2500000
                       0.0000000  0.0000000  0.0000000     0.2500000  0.2500000  0.2500000
                       0.0000000  0.0000000  0.0000000     0.2500000  0.2500000  0.2500000
                       0.0000000  0.0000000  0.0000000     0.2500000  0.2500000  0.2500000
                       0.0000000  0.0000000  0.0000000     0.2500000  0.2500000  0.2500000
                       0.0000000  0.0000000  0.0000000     0.2500000  0.2500000  0.2500000
                       0.0000000  0.0000000  0.0000000     0.2500000  0.2500000  0.2500000
                       0.0000000  0.0000000  0.0000000     0.2500000  0.2500000  0.2500000
                       0.0000000  0.0000000  0.0000000     0.2500000  0.2500000  0.2500000
                       0.0000000  0.0000000  0.0000000     0.2500000  0.2500000  0.2500000
                       0.0000000  0.0000000  0.0000000     0.2500000  0.2500000  0.2500000
                       0.0000000  0.0000000  0.0000000     0.2500000  0.2500000  0.2500000
                       0.0000000  0.0000000  0.0000000     0.2500000  0.2500000  0.2500000
                       0.0000000  0.0000000  0.0000000     0.2500000  0.2500000  0.2500000
                       0.0000000  0.0000000  0.0000000     0.2500000  0.2500000  0.2500000
                       0.0000000  0.0000000  0.0000000     0.2500000  0.2500000  0.2500000
                       0.0000000  0.0000000  0.0000000     0.2500000  0.2500000  0.2500000
                       0.0000000  0.0000000  0.0000000     0.2500000  0.2500000  0.2500000
                       0.0000000  0.0000000  0.0000000     0.2500000  0.2500000  0.2500000
                       0.0000000  0.0000000  0.0000000     0.2500000  0.2500000  0.2500000
                       0.0000000  0.0000000  0.0000000     0.2500000  0.2500000  0.2500000
                       0.0000000  0.0000000  0.0000000     0.2500000  0.2500000  0.2500000
                       0.0000000  0.0000000  0.0000000     0.2500000  0.2500000  0.2500000
                       0.0000000  0.0000000  0.0000000     0.2500000  0.2500000  0.2500000
           tolvrs1     1.00000000E-08
           tolvrs2     0.00000000E+00
            typat      1  1
         wfoptalg1        114
         wfoptalg2          0
              wtk        0.00195    0.01563    0.01563    0.01563    0.00781    0.01172
                         0.04688    0.04688    0.04688    0.04688    0.04688    0.02344
                         0.01172    0.04688    0.04688    0.04688    0.02344    0.01172
                         0.04688    0.02344    0.00586    0.04688    0.09375    0.04688
                         0.04688    0.09375    0.04688    0.02344    0.01172
           xangst      0.0000000000E+00  0.0000000000E+00  0.0000000000E+00
                       1.3573395400E+00  1.3573395400E+00  1.3573395400E+00
[...]
- invars2                          10.519   1.4        10.520   1.2            464      -1.00        1.00       1.00
- xc:pot/=fourdp                    5.305   0.7         5.335   0.6           1856      -1.00        0.99       0.99
- ewald                             4.573   0.6         4.577   0.5            464      -1.00        1.00       1.00
- nonlop(apply)                     4.262   0.6         4.285   0.5          15861      -1.00        0.99       0.99
- stress                            2.345   0.3         2.360   0.3            232      -1.00        0.99       0.99
- ewald2 (+vdw_dftd)                1.663   0.2         1.664   0.2            232      -1.00        1.00       1.00
- mkcore                            1.525   0.2         1.527   0.2            928      -1.00        1.00       1.00
- prep_bandfft_tabs                 1.475   0.2         1.498   0.2            464      -1.00        0.98       0.98
- kpgsph                            0.948   0.1         0.949   0.1          27608      -1.00        1.00       1.00
- forces                            0.875   0.1         0.887   0.1            232      -1.00        0.99       0.99
- symrhg(no FFT)                    0.713   0.1         0.714   0.1           1392      -1.00        1.00       1.00
- scfcv-scprqt                      0.584   0.1         0.587   0.1           1392      -1.00        1.00       1.00
- vtowfk(contrib)                   0.477   0.1         0.479   0.1           1392      -1.00        1.00       1.00
- setsym                            0.471   0.1         0.471   0.1            232      -1.00        1.00       1.00
- getghc-other                      0.469   0.1         0.476   0.1           -232      -1.00        0.99       0.99
- vtowfk  (1)                       0.179   0.0         0.190   0.0           1392      -1.00        0.95       0.95
- nonlop(forces)                    0.149   0.0         0.150   0.0           1856      -1.00        1.00       1.00
- vtowfk(ssdiag)                    0.089   0.0         0.094   0.0           -232      -1.00        0.95       0.95
- mkffnl                            0.060   0.0         0.061   0.0            696      -1.00        0.99       0.99
- inwffil(excl. calls)              0.046   0.0         0.048   0.0            232      -1.00        0.96       0.96
- others (127)                      0.000   0.0         0.000   0.0             -1      -1.00        0.00       0.00
-<END_TIMER>

- subtotal                        283.717  38.0       301.937  35.4                                  0.94       0.94

 Partitioning of abinit
- abinit                          746.648 100.0       852.247 100.0            232                   0.88       0.88

- abinit(1)                        46.172   6.2        53.097   6.2            232                   0.87       0.87
- abinit(2)                        15.375   2.1        15.745   1.8            232                   0.98       0.98
- indefo+macroin+invars2m          10.565   1.4        10.567   1.2            232                   1.00       1.00
- abinit(4)                        64.772   8.7        70.237   8.2            232                   0.92       0.92
- abinit(5)                        35.703   4.8        35.767   4.2            232                   1.00       1.00
- driver                          600.624  80.4       694.737  81.5            232                   0.86       0.86
- timana(1)                         0.205   0.0         0.209   0.0            232                   0.98       0.98
- timing timab                     27.028   3.6        27.031   3.2           3248                   1.00       1.00

[...]

 Partitioning of driver
- driver                          600.624  80.4       694.737  81.5            232                   0.86       0.86

- driver(bef. loop dtset)           0.164   0.0         0.175   0.0            232                   0.94       0.94
- driver(bef. select case)         14.775   2.0        36.255   4.3            464                   0.41       0.41
- (other)                         585.500  78.4       658.116  77.2             -1                   0.89       0.89

[...]

 Partitioning of gstateimg+gstate
- gstateimg                       286.597  38.4       337.496  39.6            232                   0.85       0.85

- gstate(1)                        21.199   2.8        21.348   2.5            464                   0.99       0.99
- gstate(pspini)                   56.622   7.6        56.994   6.7            232                   0.99       0.99
- gstate(init rhor rhog)            1.086   0.1         1.099   0.1            232                   0.99       0.99
- gstate(init history)              0.411   0.1         0.412   0.0            232                   1.00       1.00
- gstate(...scfcv)                 80.565  10.8       119.453  14.0            232                   0.67       0.67
- gstate(prtwf)                   125.204  16.8       136.565  16.0            232                   0.92       0.92
- gstate(clnup1)                    0.720   0.1         0.809   0.1            232                   0.89       0.89

[...]

 Partitioning of scfcv_core
- scfcv_core                       79.634  10.7       118.414  13.9            232                   0.67       0.67

- scfcv_core(1)                     0.916   0.1         0.959   0.1            232                   0.96       0.96
- scfcv_core(iniloop, setv          5.376   0.7         5.403   0.6           1392                   0.99       0.99
- scfcv_core(vtorho(f))            44.654   6.0        68.165   8.0           1392                   0.66       0.66
- scfcv-scprqt                      0.584   0.1         0.587   0.1           1392                   1.00       1.00
- scfcv_core(rhotov)                8.656   1.2         8.659   1.0           1392                   1.00       1.00
- scfcv_core(qui loop)              0.632   0.1         0.632   0.1           1392                   1.00       1.00
- scfcv_core(mix pot)              12.326   1.7        27.266   3.2           1160                   0.45       0.45
- scfcv_core(just after sc          0.299   0.0         0.331   0.0            232                   0.90       0.90
- scfcv_core(afterscfloop)          5.176   0.7         5.294   0.6            232                   0.98       0.98
- scfcv_core(outscfcv)              0.850   0.1         0.947   0.1            232                   0.90       0.90

[...]

 Partitioning of rhotov
- rhotov                            8.623   1.2         8.625   1.0           1392                   1.00       1.00

- rhotov(rhotoxc)                   7.536   1.0         7.538   0.9           1392                   1.00       1.00
- rhotov(other)                     0.182   0.0         0.183   0.0           1392                   0.99       0.99
- (other)                           0.877   0.1         0.876   0.1             -1                   1.00       1.00

[...]

 Partitioning of vtorho
- vtorho                           44.619   6.0        68.130   8.0           1392                   0.65       0.65

- vtorho(bef. vtowfk)               1.341   0.2         1.366   0.2           1392                   0.98       0.98
- vtowfk                           34.310   4.6        57.650   6.8           1392                   0.60       0.60
- vtorho(aft. kpt loop)             0.817   0.1         0.820   0.1           1392                   1.00       1.00
- vtorho(highest occ. eig)          0.433   0.1         0.438   0.1           1392                   0.99       0.99
- vtorho(mkrho 2)                   2.501   0.3         2.594   0.3           2784                   0.96       0.96

[...]

 Partitioning of vtowfk
- vtowfk                           34.310   4.6        57.650   6.8           1392                   0.60       0.60

- vtowfk  (1)                       0.179   0.0         0.190   0.0           1392                   0.95       0.95
- vtowfk(2)                        33.653   4.5        56.981   6.7           -232                   0.59       0.59
- prep_fourwf%vtow                  0.413   0.1         0.413   0.0           1392                   1.00       1.00

[...]

 Partitioning of getghc
- getghc                           23.087   3.1        23.134   2.7          15861                   1.00       1.00

- fourwf%getghc                    18.355   2.5        18.374   2.2          15861                   1.00       1.00
- nonlop%getghc                     4.262   0.6         4.285   0.5          15861                   0.99       0.99
- getghc-other                      0.469   0.1         0.476   0.1           -232                   0.99       0.99

[...]

 Partitioning of fourwf (upwards partitioning)
- fourwf                           18.725   2.5        18.744   2.2          17253                   1.00       1.00

- fourwf%getghc                    18.355   2.5        18.374   2.2          15861                   1.00       1.00
- fourwf%prep_four                  0.370   0.0         0.370   0.0           1392                   1.00       1.00

[...]

 Partitioning of prep_getghc
- prep_getghc                      11.520   1.5        11.577   1.4           9280                   1.00       1.00

- prep_getghc(before if)            0.215   0.0         0.220   0.0           9280                   0.98       0.98
- prep_getghc(alltoall)             1.580   0.2         1.583   0.2          18560                   1.00       1.00
- prep_getghc(getghc - 2 )          9.577   1.3         9.626   1.1           9280                   0.99       0.99

[...]

 Partitioning of prep_fourwf
- prep_fourwf                       0.413   0.1         0.413   0.0           1392                   1.00       1.00

- fourwf%prep_four                  0.370   0.0         0.370   0.0           1392                   1.00       1.00

[...]

 Partitioning of prep_nonlop
- prep_nonlop                       0.715   0.1         0.732   0.1           2088                   0.98       0.98

- nonlop%prep_nonl%forstrn          0.407   0.1         0.422   0.0            232                   0.96       0.96
- (other)                           0.259   0.0         0.261   0.0             -1                   0.99       0.99

[...]

 Partitioning of inwffil
- inwffil                          15.826   2.1        15.833   1.9            232                   1.00       1.00

- inwffil(call newkpt)             15.780   2.1        15.786   1.9            232                   1.00       1.00

[...]

 Partitioning of newkpt
- newkpt                           15.780   2.1        15.785   1.9            232                   1.00       1.00

- newkpt(call wfconv)               0.186   0.0         0.189   0.0            232                   0.98       0.98
- newkpt(after loop   )            15.551   2.1        15.553   1.8            232                   1.00       1.00

[...]

 Partitioning of newvtr
- newvtr                           12.120   1.6        27.040   3.2           1160                   0.45       0.45

- newvtr(bef. prcref_PMA)           0.265   0.0         0.300   0.0           1160                   0.89       0.89
- newvtr(call prcref_PMA)           1.118   0.1         1.122   0.1           1160                   1.00       1.00
- newvtr(aft. prcref_PMA)          10.178   1.4        25.063   2.9           1160                   0.41       0.41
- newvtr(mean potential)            0.462   0.1         0.462   0.1           1160                   1.00       1.00

[...]

 Partitioning of  fourdp (upwards partitioning)
- fourdp                           10.948   1.5        10.979   1.3          22968                   1.00       1.00

- fourdp%(other)                   10.948   1.5        10.979   1.3          22968                   1.00       1.00

[...]

 Partitioning of afterscfloop
- afterscfloop                      5.091   0.7         5.206   0.6            232                   0.98       0.98

- afterscfloop(forstr)              4.898   0.7         5.005   0.6            232                   0.98       0.98

[...]

 Partitioning of forstr
- forstr                            4.788   0.6         4.886   0.6            232                   0.98       0.98

- forstr(forstrnps)                 1.217   0.2         1.237   0.1            232                   0.98       0.98
- forstr(forces)                    1.174   0.2         1.236   0.1            232                   0.95       0.95
- forstr(stress)                    2.397   0.3         2.413   0.3            232                   0.99       0.99

[...]

 Partitioning of forstrnps
- forstrnps                         1.161   0.2         1.179   0.1            232                   0.98       0.98

- forstrnps(bef.loop band)          0.367   0.0         0.369   0.0            232                   0.99       0.99
- forstrnps(nonlop+prep_ba          0.470   0.1         0.484   0.1            232                   0.97       0.97
- forstrnps:synchr                  0.239   0.0         0.239   0.0            464                   1.00       1.00

[...]

 Partitioning of outscfcv
- outscfcv                          0.755   0.1         0.828   0.1            232                   0.91       0.91

- outscfcv(preparation)             0.192   0.0         0.206   0.0            232                   0.93       0.93
- outscfcv(calcdenmagsph)           0.378   0.1         0.393   0.0            232                   0.96       0.96

[...]

 Partitioning of lobpcgwf2 core engine
- lobpcgwf2                        33.565   4.5        56.888   6.7           1856                   0.59       0.59

- lobpcg_init                       0.179   0.0         0.185   0.0           1856                   0.97       0.97
- lobpcg_run                       32.964   4.4        56.268   6.6           1856                   0.59       0.59
- lobpcg_Bortho                     9.999   1.3        24.383   2.9           9280                   0.41       0.41
- lobpcg_RayleighRitz              10.440   1.4        19.288   2.3           9280                   0.54       0.54
- lobpcg_maxResidu                  0.573   0.1         0.577   0.1          16704                   0.99       0.99
- lobpcg_run@getAX_BX              11.711   1.6        11.776   1.4           9280                   0.99       0.99
- lobpcg_RayleighRitz@hegv          8.792   1.2        17.639   2.1           9280                   0.50       0.50

- subtotal                         74.672  10.0       130.129  15.3                                  0.57       0.57

 Partitioning of low-level xgBlock type
- xgBlock_potrf                     8.691   1.2        23.070   2.7           9280                   0.38       0.38

- xgBlock_trsm                      0.636   0.1         0.638   0.1          27840                   1.00       1.00
- xgBlock_gemm                      2.023   0.3         2.033   0.2         102080                   1.00       1.00
- xgBlock_hegvx                     8.612   1.2        17.461   2.0           7424                   0.49       0.49

- subtotal                         11.516   1.5        20.380   2.4                                  0.57       0.57
-
-
- forstrnps:synchr                  0.239   0.0         0.239   0.0            464                   1.00       1.00
- alltoall%back_wf                  0.153   0.0         0.147   0.0          19952                   1.04       1.04
- alltoall%forw_wf                  0.047   0.0         0.043   0.0          18560                   1.08       1.08
- subtotal                          0.439   0.1         0.430   0.1                                  1.02       1.02

 Additional information
- timana(1)                         0.205   0.0         0.209   0.0            232                   0.98       0.98
- total timab                      27.398   3.7        27.401   3.2       45761114                   1.00       1.00
- fourwf                           18.725   2.5        18.744   2.2          17253                   1.00       1.00
- mklocl(2)                         0.135   0.0         0.135   0.0            232                   1.00       1.00
- nonlop(total)                     4.819   0.6         4.856   0.6          17949                   0.99       0.99
- xc:fourdp                         5.998   0.8         5.983   0.7          14848                   1.00       1.00
- read_rho                         59.907   8.0        59.984   7.0            232                   1.00       1.00

 timana : in multi dataset mode, the more detailed analysis is not done.

 Suggested references for the acknowledgment of ABINIT usage.

 Calculation completed.
.Delivered   0 WARNINGs and   0 COMMENTs to log file.