.Version 9.9.2 of ABINIT

 ABINIT is a project of the Universite Catholique de Louvain,
 Corning Inc. and other collaborators, see ~abinit/doc/developers/contributors.txt .
 acknowledgments of the ABINIT effort.

.Starting date : Fri 17 Feb 2023.
- ( at 10h02 )

- input  file    -> run.abi
- output file    -> run.abo
- root for input  files -> indata_gs
- root for output files -> outdata_gs

 DATASET    1 : space group Fm -3 m (#225); Bravais cF (face-center cubic)
     intxc =       0    ionmov =       0      iscf =       7    lmnmax =       5
     lnmax =       5     mgfft =      36  mpssoang =       3    mqgrid =    3001
     natom =       2  nloc_mem =       1    nspden =       1   nspinor =       1
    nsppol =       1      nsym =      48    n1xccc =    2501    ntypat =       2
    occopt =       1   xclevel =       2
-    mband =           9        mffmem =           1         mkmem =           1
       mpw =         389          nfft =       11664          nkpt =          29
  Rough estimation (10% accuracy) of disk space for files :

 DATASET    2 : space group Fm -3 m (#225); Bravais cF (face-center cubic)
     intxc =       0    ionmov =       0      iscf =       7    lmnmax =       5
     lnmax =       5     mgfft =      36  mpssoang =       3    mqgrid =    3001
     natom =       2  nloc_mem =       1    nspden =       1   nspinor =       1
    nsppol =       1      nsym =      48    n1xccc =    2501    ntypat =       2
    occopt =       1   xclevel =       2
-    mband =           6        mffmem =           1         mkmem =           1
       mpw =        1588          nfft =       46656          nkpt =          29
  Rough estimation (10% accuracy) of disk space for files :

------------- Echo of variables that govern the present computation ------------
-
- outvars: echo of selected default values
-   iomode0 =  0 , fftalg0 =312 , wfoptalg0 =  0
-
- outvars: echo of global parameters not present in the input file
-  max_nthreads =    0
-
 -outvars: echo values of preprocessed input variables --------
-          iomode1          1
-          iomode2          0
            acell      8.0364717690E+00  8.0364717690E+00  8.0364717690E+00 Bohr
              amu      6.94100000E+00  1.89984032E+01
        autoparal1          1
        autoparal2          0
     densfor_pred1          6
     densfor_pred2          2
           diemac      1.20000000E+01
             ecut      4.00000000E+01 Hartree
-          fftalg         312
           getden1          0
           getden2         -1
           istwfk        1    0    0    0    1    0    0    0    0    0
                         0    0    0    0    0    0    0    0    0    0
                         1    0    0    0    0    0    0    0    0
              ixc          11
           jdtset        1    2
              kpt      0.00000000E+00  0.00000000E+00  0.00000000E+00
                       1.25000000E-01  0.00000000E+00  0.00000000E+00
                       2.50000000E-01  0.00000000E+00  0.00000000E+00
                       3.75000000E-01  0.00000000E+00  0.00000000E+00
                       5.00000000E-01  0.00000000E+00  0.00000000E+00
                       1.25000000E-01  1.25000000E-01  0.00000000E+00
                       2.50000000E-01  1.25000000E-01  0.00000000E+00
                       3.75000000E-01  1.25000000E-01  0.00000000E+00
                       5.00000000E-01  1.25000000E-01  0.00000000E+00
                      -3.75000000E-01  1.25000000E-01  0.00000000E+00
                      -2.50000000E-01  1.25000000E-01  0.00000000E+00
                      -1.25000000E-01  1.25000000E-01  0.00000000E+00
                       2.50000000E-01  2.50000000E-01  0.00000000E+00
                       3.75000000E-01  2.50000000E-01  0.00000000E+00
                       5.00000000E-01  2.50000000E-01  0.00000000E+00
                      -3.75000000E-01  2.50000000E-01  0.00000000E+00
                      -2.50000000E-01  2.50000000E-01  0.00000000E+00
                       3.75000000E-01  3.75000000E-01  0.00000000E+00
                       5.00000000E-01  3.75000000E-01  0.00000000E+00
                      -3.75000000E-01  3.75000000E-01  0.00000000E+00
                       5.00000000E-01  5.00000000E-01  0.00000000E+00
                       3.75000000E-01  2.50000000E-01  1.25000000E-01
                       5.00000000E-01  2.50000000E-01  1.25000000E-01
                      -3.75000000E-01  2.50000000E-01  1.25000000E-01
                       5.00000000E-01  3.75000000E-01  1.25000000E-01
                      -3.75000000E-01  3.75000000E-01  1.25000000E-01
                      -2.50000000E-01  3.75000000E-01  1.25000000E-01
                      -3.75000000E-01  5.00000000E-01  1.25000000E-01
                      -2.50000000E-01  5.00000000E-01  2.50000000E-01
         kptrlatt        8    0    0      0    8    0      0    0    8
          kptrlen      4.54611495E+01
P           mkmem           1
            natom           2
            nband1          9
            nband2          6
           ndtset           2
            ngfft          36      36      36
             nkpt          29
-           npfft1          4
-           npfft2          1
-        np_spkpt1         29
-        np_spkpt2          1
            nstep          50
             nsym          48
           ntypat           2
              occ1     2.000000  2.000000  2.000000  2.000000  2.000000  0.000000
                       0.000000  0.000000  0.000000
              occ2     2.000000  2.000000  2.000000  2.000000  2.000000  0.000000
        optdriver1          0
        optdriver2          6
           ortalg1         -2
           ortalg2          2
        paral_kgb1          1
        paral_kgb2          0
            rprim      0.0000000000E+00  5.0000000000E-01  5.0000000000E-01
                       5.0000000000E-01  0.0000000000E+00  5.0000000000E-01
                       5.0000000000E-01  5.0000000000E-01  0.0000000000E+00
          spgroup         225
           symrel      1  0  0   0  1  0   0  0  1      -1  0  0   0 -1  0   0  0 -1
                       0 -1  1   0 -1  0   1 -1  0       0  1 -1   0  1  0  -1  1  0
                      -1  0  0  -1  0  1  -1  1  0       1  0  0   1  0 -1   1 -1  0
                       0  1 -1   1  0 -1   0  0 -1       0 -1  1  -1  0  1   0  0  1
                      -1  0  0  -1  1  0  -1  0  1       1  0  0   1 -1  0   1  0 -1
                       0 -1  1   1 -1  0   0 -1  0       0  1 -1  -1  1  0   0  1  0
                       1  0  0   0  0  1   0  1  0      -1  0  0   0  0 -1   0 -1  0
                       0  1 -1   0  0 -1   1  0 -1       0 -1  1   0  0  1  -1  0  1
                      -1  0  1  -1  1  0  -1  0  0       1  0 -1   1 -1  0   1  0  0
                       0 -1  0   1 -1  0   0 -1  1       0  1  0  -1  1  0   0  1 -1
                       1  0 -1   0  0 -1   0  1 -1      -1  0  1   0  0  1   0 -1  1
                       0  1  0   0  0  1   1  0  0       0 -1  0   0  0 -1  -1  0  0
                       1  0 -1   0  1 -1   0  0 -1      -1  0  1   0 -1  1   0  0  1
                       0 -1  0   0 -1  1   1 -1  0       0  1  0   0  1 -1  -1  1  0
                      -1  0  1  -1  0  0  -1  1  0       1  0 -1   1  0  0   1 -1  0
                       0  1  0   1  0  0   0  0  1       0 -1  0  -1  0  0   0  0 -1
                       0  0 -1   0  1 -1   1  0 -1       0  0  1   0 -1  1  -1  0  1
                       1 -1  0   0 -1  1   0 -1  0      -1  1  0   0  1 -1   0  1  0
                       0  0  1   1  0  0   0  1  0       0  0 -1  -1  0  0   0 -1  0
                      -1  1  0  -1  0  0  -1  0  1       1 -1  0   1  0  0   1  0 -1
                       0  0  1   0  1  0   1  0  0       0  0 -1   0 -1  0  -1  0  0
                       1 -1  0   0 -1  0   0 -1  1      -1  1  0   0  1  0   0  1 -1
                       0  0 -1   1  0 -1   0  1 -1       0  0  1  -1  0  1   0 -1  1
                      -1  1  0  -1  0  1  -1  0  0       1 -1  0   1  0 -1   1  0  0
           timopt          -1
           tolvrs1     1.00000000E-08
           tolvrs2     0.00000000E+00
            typat      1  2
         wfoptalg1        114
         wfoptalg2          0
              wtk        0.00195    0.01563    0.01563    0.01563    0.00781    0.01172
                         0.04688    0.04688    0.04688    0.04688    0.04688    0.02344
                         0.01172    0.04688    0.04688    0.04688    0.02344    0.01172
                         0.04688    0.02344    0.00586    0.04688    0.09375    0.04688
                         0.04688    0.09375    0.04688    0.02344    0.01172
           xangst      0.0000000000E+00  0.0000000000E+00  0.0000000000E+00
                       2.1263588488E+00  2.1263588488E+00  2.1263588488E+00
            xcart      0.0000000000E+00  0.0000000000E+00  0.0000000000E+00
                       4.0182358845E+00  4.0182358845E+00  4.0182358845E+00
             xred      0.0000000000E+00  0.0000000000E+00  0.0000000000E+00
                       5.0000000000E-01  5.0000000000E-01  5.0000000000E-01
            znucl        3.00000    9.00000

 chkinp: Checking input parameters for consistency, jdtset=   1.

 chkinp: Checking input parameters for consistency, jdtset=   2.

== DATASET  1 ==================================================================
-   mpi_nproc: 116, omp_nthreads: -1 (-1 if OMP is not activated)

--- !DatasetInfo
iteration_state: {dtset: 1, }
dimensions: {natom: 2, nkpt: 29, mband: 9, nsppol: 1, nspinor: 1, nspden: 1, mpw: 389, }
cutoff_energies: {ecut:  40.0, pawecutdg:  -1.0, }
electrons: {nelect:   1.00000000E+01, charge:   0.00000000E+00, occopt:   1.00000000E+00, tsmear:   1.00000000E-02, }
meta: {optdriver: 0, ionmov: 0, optcell: 0, iscf: 7, paral_kgb: 1, }
...

 Real(R)+Recip(G) space primitive vectors, cartesian coordinates (Bohr,Bohr^-1):
 R(1)=  0.0000000  4.0182359  4.0182359  G(1)= -0.1244327  0.1244327  0.1244327
 R(2)=  4.0182359  0.0000000  4.0182359  G(2)=  0.1244327 -0.1244327  0.1244327
 R(3)=  4.0182359  4.0182359  0.0000000  G(3)=  0.1244327  0.1244327 -0.1244327
 Unit cell volume ucvol=  1.2975864E+02 bohr^3
 Angles (23,13,12)=  6.00000000E+01  6.00000000E+01  6.00000000E+01 degrees

 getcut: wavevector=  0.0000  0.0000  0.0000  ngfft=  36  36  36
         ecut(hartree)=     40.000   => boxcut(ratio)=   2.22514

 getcut : COMMENT -
  Note that boxcut > 2.2 ; recall that boxcut=Gcut(box)/Gcut(sphere) = 2
  is sufficient for exact treatment of convolution.
  Such a large boxcut is a waste : you could raise ecut
  e.g. ecut=   49.512392 Hartrees makes boxcut=2

--- Pseudopotential description ------------------------------------------------
- pspini: atom type   1  psp file is Li.psp8
- pspatm: opening atomic psp file    Li.psp8
- Li    ONCVPSP-3.2.3.1  r_core=   1.40824   1.10935
-  3.00000   3.00000    170503                znucl, zion, pspdat
    8   11    1    4       400   0.00000      pspcod,pspxc,lmax,lloc,mmax,r2well
    3.99000000000000    0.00000000000000    0.00000000000000   rchrg,fchrg,qchrg
     nproj     2     2
     extension_switch     1
[...]
- cpu_time =         691.1, wall_time =         757.3
-
-                                                                        (-1=no count)
- ugb_from_diago                  207.931  30.1       211.555  27.9            116      -1.00        0.98       0.98
- fourwf%(pot)                     73.002  10.6        73.023   9.6          63583      -1.00        1.00       1.00
- pspini                           58.514   8.5        58.648   7.7            232      -1.00        1.00       1.00
- timing timab                     13.529   2.0        13.581   1.8           1624      -1.00        1.00       1.00
- abinit(2)                        12.257   1.8        19.292   2.5            116      -1.00        0.64       0.64
- fourdp                            8.682   1.3         8.697   1.1          14500      -1.00        1.00       1.00
- nonlop(apply)                     8.240   1.2         8.264   1.1          63583      -1.00        1.00       1.00
- invars2                           5.385   0.8         5.387   0.7            232      -1.00        1.00       1.00
- xc:pot/=fourdp                    3.659   0.5         3.684   0.5           1160      -1.00        0.99       0.99
- ewald                             2.339   0.3         2.340   0.3            232      -1.00        1.00       1.00
- newkpt(excl. rwwf   )             1.554   0.2         1.555   0.2           -116      -1.00        1.00       1.00
- vtowfk(contrib)                   1.500   0.2         1.501   0.2            928      -1.00        1.00       1.00
- stress                            1.153   0.2         1.154   0.2            116      -1.00        1.00       1.00
- symrhg(no FFT)                    0.910   0.1         0.911   0.1            928      -1.00        1.00       1.00
- mkcore                            0.838   0.1         0.838   0.1            464      -1.00        1.00       1.00
- ewald2 (+vdw_dftd)                0.827   0.1         0.827   0.1            116      -1.00        1.00       1.00
- kpgsph                            0.759   0.1         0.760   0.1          13804      -1.00        1.00       1.00
- getghc-other                      0.553   0.1         0.533   0.1           -116      -1.00        1.04       1.04
- forces                            0.505   0.1         0.511   0.1            116      -1.00        0.99       0.99
- scfcv-scprqt                      0.358   0.1         0.358   0.0            928      -1.00        1.00       1.00
- nonlop(forces)                    0.306   0.0         0.307   0.0          10440      -1.00        1.00       1.00
- setsym                            0.271   0.0         0.271   0.0            116      -1.00        1.00       1.00
- prep_bandfft_tabs                 0.108   0.0         0.111   0.0            232      -1.00        0.97       0.97
- mkffnl                            0.074   0.0         0.076   0.0            348      -1.00        0.98       0.98
- vtowfk(ssdiag)                    0.058   0.0         0.061   0.0           -116      -1.00        0.96       0.96
- vtowfk  (1)                       0.038   0.0         0.039   0.0            928      -1.00        0.97       0.97
- inwffil(excl. calls)              0.009   0.0         0.009   0.0            116      -1.00        0.96       0.96
- others (127)                      0.000   0.0         0.000   0.0             -1      -1.00        0.00       0.00
-<END_TIMER>

- subtotal                        406.066  58.8       417.009  55.1                                  0.97       0.97

 Partitioning of abinit
- abinit                          691.149 100.0       757.276 100.0            116                   0.91       0.91

- abinit(1)                        17.181   2.5        27.802   3.7            116                   0.62       0.62
- abinit(2)                        12.257   1.8        19.292   2.5            116                   0.64       0.64
- indefo+macroin+invars2m           5.633   0.8         7.160   0.9            116                   0.79       0.79
- abinit(4)                        31.747   4.6        43.741   5.8            116                   0.73       0.73
- abinit(5)                        14.731   2.1        17.005   2.2            116                   0.87       0.87
- driver                          623.702  90.2       661.742  87.4            116                   0.94       0.94
- timing timab                     13.529   2.0        13.581   1.8           1624                   1.00       1.00

[...]

 Partitioning of driver
- driver                          623.702  90.2       661.742  87.4            116                   0.94       0.94

- driver(bef. loop dtset)           0.292   0.0         0.311   0.0            116                   0.94       0.94
- driver(bef. select case)          7.093   1.0        17.634   2.3            232                   0.40       0.40
- (other)                         616.192  89.2       643.657  85.0             -1                   0.96       0.96

[...]

 Partitioning of gstateimg+gstate
- gstateimg                       183.696  26.6       204.127  27.0            116                   0.90       0.90

- gstate(1)                         3.715   0.5         3.771   0.5            232                   0.99       0.99
- gstate(pspini)                   58.551   8.5        58.687   7.7            116                   1.00       1.00
- gstate(init rhor rhog)            0.607   0.1         0.610   0.1            116                   0.99       0.99
- gstate(...scfcv)                 75.539  10.9        92.554  12.2            116                   0.82       0.82
- gstate(prtwf)                    44.455   6.4        47.629   6.3            116                   0.93       0.93
- gstate(clnup1)                    0.382   0.1         0.412   0.1            116                   0.93       0.93

[...]

 Partitioning of scfcv_core
- scfcv_core                       75.035  10.9        92.009  12.1            116                   0.82       0.82

- scfcv_core(1)                     0.408   0.1         0.421   0.1            116                   0.97       0.97
- scfcv_core(iniloop, setv          3.003   0.4         3.024   0.4            928                   0.99       0.99
- scfcv_core(vtorho(f))            53.070   7.7        60.488   8.0            928                   0.88       0.88
- scfcv-scprqt                      0.358   0.1         0.358   0.0            928                   1.00       1.00
- scfcv_core(rhotov)                6.006   0.9         6.009   0.8            928                   1.00       1.00
- scfcv_core(qui loop)              0.209   0.0         0.209   0.0            928                   1.00       1.00
- scfcv_core(mix pot)               8.393   1.2        17.703   2.3            812                   0.47       0.47
- scfcv_core(just after sc          0.189   0.0         0.226   0.0            116                   0.83       0.83
- scfcv_core(afterscfloop)          2.665   0.4         2.714   0.4            116                   0.98       0.98
- scfcv_core(outscfcv)              0.619   0.1         0.737   0.1            116                   0.84       0.84

[...]

 Partitioning of rhotov
- rhotov                            5.975   0.9         5.976   0.8            928                   1.00       1.00

- rhotov(rhotoxc)                   5.120   0.7         5.121   0.7            928                   1.00       1.00
- (other)                           0.711   0.1         0.710   0.1             -1                   1.00       1.00

[...]

 Partitioning of vtorho
- vtorho                           53.021   7.7        60.433   8.0            928                   0.88       0.88

- vtorho(bef. spin loop)            0.229   0.0         0.252   0.0            928                   0.91       0.91
- vtorho(bef. vtowfk)               0.240   0.0         0.248   0.0            928                   0.97       0.97
- vtowfk                           47.031   6.8        54.373   7.2            928                   0.86       0.86
- vtorho(aft. kpt loop)             0.319   0.0         0.320   0.0            928                   1.00       1.00
- vtorho(mkrho 2)                   2.155   0.3         2.182   0.3           1856                   0.99       0.99

[...]

 Partitioning of vtowfk
- vtowfk                           47.031   6.8        54.373   7.2            928                   0.86       0.86

- vtowfk(2)                        45.493   6.6        52.832   7.0           -116                   0.86       0.86
- prep_fourwf%vtow                  1.441   0.2         1.441   0.2           8352                   1.00       1.00

[...]

 Partitioning of getghc
- getghc                           81.795  11.8        81.820  10.8          63583                   1.00       1.00

- fourwf%getghc                    73.002  10.6        73.023   9.6          63583                   1.00       1.00
- nonlop%getghc                     8.240   1.2         8.264   1.1          63583                   1.00       1.00
- getghc-other                      0.553   0.1         0.533   0.1           -116                   1.04       1.04

[...]

 Partitioning of fourwf (upwards partitioning)
- fourwf                           74.405  10.8        74.426   9.8          68223                   1.00       1.00

- fourwf%getghc                    73.002  10.6        73.023   9.6          63583                   1.00       1.00
- fourwf%prep_four                  1.402   0.2         1.403   0.2           4640                   1.00       1.00

[...]

 Partitioning of prep_getghc
- prep_getghc                      34.592   5.0        34.611   4.6          52200                   1.00       1.00

- prep_getghc(alltoall)             0.403   0.1         0.407   0.1         104400                   0.99       0.99
- prep_getghc(getghc - 1 )         34.017   4.9        34.034   4.5          52200                   1.00       1.00

[...]

 Partitioning of prep_fourwf
- prep_fourwf                       1.441   0.2         1.441   0.2           8352                   1.00       1.00

- fourwf%prep_four                  1.402   0.2         1.403   0.2           4640                   1.00       1.00

[...]

 Partitioning of prep_nonlop
- prep_nonlop                       0.735   0.1         0.738   0.1          11020                   1.00       1.00

- nonlop%prep_nonl%forstrn          0.374   0.1         0.377   0.0            580                   0.99       0.99
- (other)                           0.334   0.0         0.334   0.0             -1                   1.00       1.00

[...]

 Partitioning of inwffil
- inwffil                           1.578   0.2         1.579   0.2            116                   1.00       1.00

- inwffil(call newkpt)              1.570   0.2         1.570   0.2            116                   1.00       1.00

[...]

 Partitioning of newkpt
- newkpt                            1.570   0.2         1.570   0.2            116                   1.00       1.00

- newkpt(after loop   )             1.514   0.2         1.514   0.2            116                   1.00       1.00

[...]

 Partitioning of newvtr
- newvtr                            8.283   1.2        17.588   2.3            812                   0.47       0.47

- newvtr(call prcref_PMA)           0.877   0.1         0.878   0.1            812                   1.00       1.00
- newvtr(aft. prcref_PMA)           6.886   1.0        16.187   2.1            812                   0.43       0.43
- newvtr(mean potential)            0.350   0.1         0.350   0.0            812                   1.00       1.00

[...]

 Partitioning of  fourdp (upwards partitioning)
- fourdp                            8.682   1.3         8.697   1.1          14500                   1.00       1.00

- fourdp%(other)                    8.682   1.3         8.697   1.1          14500                   1.00       1.00

[...]

 Partitioning of afterscfloop
- afterscfloop                      2.548   0.4         2.581   0.3            116                   0.99       0.99

- afterscfloop(forstr)              2.427   0.4         2.457   0.3            116                   0.99       0.99

[...]

 Partitioning of forstr
- forstr                            2.352   0.3         2.376   0.3            116                   0.99       0.99

- forstr(forstrnps)                 0.574   0.1         0.579   0.1            116                   0.99       0.99
- forstr(forces)                    0.614   0.1         0.634   0.1            116                   0.97       0.97
- forstr(stress)                    1.163   0.2         1.163   0.2            116                   1.00       1.00

[...]

 Partitioning of forstrnps
- forstrnps                         0.561   0.1         0.566   0.1            116                   0.99       0.99

- forstrnps(nonlop+prep_ba          0.379   0.1         0.381   0.1            580                   0.99       0.99

[...]

 Partitioning of outscfcv
- outscfcv                          0.586   0.1         0.703   0.1            116                   0.83       0.83

- outscfcv([PAW]prtden)             0.061   0.0         0.158   0.0            116                   0.38       0.38
- outscfcv(calcdenmagsph)           0.361   0.1         0.370   0.0            116                   0.98       0.98

[...]

 Partitioning of lobpcgwf2 core engine
- lobpcgwf2                        45.435   6.6        52.772   7.0           1160                   0.86       0.86

- lobpcg_run                       44.886   6.5        52.219   6.9           1160                   0.86       0.86
- lobpcg_orthoWrtPrev               0.530   0.1         0.530   0.1          46400                   1.00       1.00
- lobpcg_Bortho                     5.498   0.8        12.807   1.7          53360                   0.43       0.43
- lobpcg_RayleighRitz               3.528   0.5         3.531   0.5          53360                   1.00       1.00
- lobpcg_maxResidu                  0.214   0.0         0.216   0.0          93960                   0.99       0.99
- lobpcg_run@getAX_BX              34.778   5.0        34.800   4.6          52200                   1.00       1.00
- lobpcg_RayleighRitz@hegv          1.030   0.1         1.031   0.1          53360                   1.00       1.00

- subtotal                         90.582  13.1       105.254  13.9                                  0.86       0.86

 Partitioning of low-level xgBlock type
- xgBlock_potrf                     2.702   0.4         7.727   1.0          53360                   0.35       0.35

- xgBlock_trsm                      2.091   0.3         4.381   0.6         160080                   0.48       0.48
- xgBlock_gemm                      2.861   0.4         2.889   0.4         672800                   0.99       0.99
- xgBlock_hegvx                     0.923   0.1         0.929   0.1          41760                   0.99       0.99
- xgBlock_copy                      0.233   0.0         0.232   0.0         389760                   1.00       1.00

- subtotal                          6.186   0.9         8.510   1.1                                  0.73       0.73
-
-
- forstrnps:synchr                  0.056   0.0         0.056   0.0            232                   1.00       1.00
- alltoall%back_wf                  0.988   0.1         0.974   0.1          56840                   1.01       1.01
- alltoall%forw_wf                  0.649   0.1         0.646   0.1          52200                   1.00       1.00
- subtotal                          1.693   0.2         1.675   0.2                                  1.01       1.01

 Additional information
- timana(1)                         0.092   0.0         0.095   0.0            116                   0.96       0.96
- total timab                      15.020   2.2        15.077   2.0       25058866                   1.00       1.00
- fourwf                           74.405  10.8        74.426   9.8          68223                   1.00       1.00
- mklocl(2)                         0.099   0.0         0.099   0.0            116                   1.00       1.00
- nonlop(total)                     8.920   1.3         8.948   1.2          74603                   1.00       1.00
- xc:fourdp                         4.728   0.7         4.719   0.6           9280                   1.00       1.00
- read_rho                         61.461   8.9        61.493   8.1            116                   1.00       1.00

 timana : in multi dataset mode, the more detailed analysis is not done.

 Suggested references for the acknowledgment of ABINIT usage.

 Calculation completed.
.Delivered   0 WARNINGs and   3 COMMENTs to log file.