.Version 9.9.2 of ABINIT

 ABINIT is a project of the Universite Catholique de Louvain,
 Corning Inc. and other collaborators, see ~abinit/doc/developers/contributors.txt .
 acknowledgments of the ABINIT effort.

.Starting date : Fri 17 Feb 2023.
- ( at 10h08 )

- input  file    -> run.abi
- output file    -> run.abo
- root for input  files -> indata_gs
- root for output files -> outdata_gs

 DATASET    1 : space group Fm -3 m (#225); Bravais cF (face-center cubic)
     intxc =       0    ionmov =       0      iscf =       7    lmnmax =       5
     lnmax =       5     mgfft =      32  mpssoang =       3    mqgrid =    3001
     natom =       2  nloc_mem =       1    nspden =       1   nspinor =       1
    nsppol =       1      nsym =      48    n1xccc =    2501    ntypat =       2
    occopt =       1   xclevel =       2
-    mband =           9        mffmem =           1         mkmem =           1
       mpw =         324          nfft =        8192          nkpt =          29
  Rough estimation (10% accuracy) of disk space for files :

 DATASET    2 : space group Fm -3 m (#225); Bravais cF (face-center cubic)
     intxc =       0    ionmov =       0      iscf =       7    lmnmax =       5
     lnmax =       5     mgfft =      32  mpssoang =       3    mqgrid =    3001
     natom =       2  nloc_mem =       1    nspden =       1   nspinor =       1
    nsppol =       1      nsym =      48    n1xccc =    2501    ntypat =       2
    occopt =       1   xclevel =       2
-    mband =           6        mffmem =           1         mkmem =           1
       mpw =        1363          nfft =       32768          nkpt =          29
  Rough estimation (10% accuracy) of disk space for files :

------------- Echo of variables that govern the present computation ------------
-
- outvars: echo of selected default values
-   iomode0 =  0 , fftalg0 =312 , wfoptalg0 =  0
-
- outvars: echo of global parameters not present in the input file
-  max_nthreads =    0
-
 -outvars: echo values of preprocessed input variables --------
-          iomode1          1
-          iomode2          0
            acell      7.5778017929E+00  7.5778017929E+00  7.5778017929E+00 Bohr
              amu      6.94100000E+00  1.89984032E+01
        autoparal1          1
        autoparal2          0
     densfor_pred1          6
     densfor_pred2          2
           diemac      1.20000000E+01
             ecut      4.00000000E+01 Hartree
-          fftalg         312
           getden1          0
           getden2         -1
           istwfk        1    0    0    0    1    0    0    0    0    0
                         0    0    0    0    0    0    0    0    0    0
                         1    0    0    0    0    0    0    0    0
              ixc          11
           jdtset        1    2
              kpt      0.00000000E+00  0.00000000E+00  0.00000000E+00
                       1.25000000E-01  0.00000000E+00  0.00000000E+00
                       2.50000000E-01  0.00000000E+00  0.00000000E+00
                       3.75000000E-01  0.00000000E+00  0.00000000E+00
                       5.00000000E-01  0.00000000E+00  0.00000000E+00
                       1.25000000E-01  1.25000000E-01  0.00000000E+00
                       2.50000000E-01  1.25000000E-01  0.00000000E+00
                       3.75000000E-01  1.25000000E-01  0.00000000E+00
                       5.00000000E-01  1.25000000E-01  0.00000000E+00
                      -3.75000000E-01  1.25000000E-01  0.00000000E+00
                      -2.50000000E-01  1.25000000E-01  0.00000000E+00
                      -1.25000000E-01  1.25000000E-01  0.00000000E+00
                       2.50000000E-01  2.50000000E-01  0.00000000E+00
                       3.75000000E-01  2.50000000E-01  0.00000000E+00
                       5.00000000E-01  2.50000000E-01  0.00000000E+00
                      -3.75000000E-01  2.50000000E-01  0.00000000E+00
                      -2.50000000E-01  2.50000000E-01  0.00000000E+00
                       3.75000000E-01  3.75000000E-01  0.00000000E+00
                       5.00000000E-01  3.75000000E-01  0.00000000E+00
                      -3.75000000E-01  3.75000000E-01  0.00000000E+00
                       5.00000000E-01  5.00000000E-01  0.00000000E+00
                       3.75000000E-01  2.50000000E-01  1.25000000E-01
                       5.00000000E-01  2.50000000E-01  1.25000000E-01
                      -3.75000000E-01  2.50000000E-01  1.25000000E-01
                       5.00000000E-01  3.75000000E-01  1.25000000E-01
                      -3.75000000E-01  3.75000000E-01  1.25000000E-01
                      -2.50000000E-01  3.75000000E-01  1.25000000E-01
                      -3.75000000E-01  5.00000000E-01  1.25000000E-01
                      -2.50000000E-01  5.00000000E-01  2.50000000E-01
         kptrlatt        8    0    0      0    8    0      0    0    8
          kptrlen      4.28665203E+01
P           mkmem           1
            natom           2
            nband1          9
            nband2          6
           ndtset           2
            ngfft          32      32      32
             nkpt          29
-           npfft1          4
-           npfft2          1
-        np_spkpt1         29
-        np_spkpt2          1
            nstep          50
             nsym          48
           ntypat           2
              occ1     2.000000  2.000000  2.000000  2.000000  2.000000  0.000000
                       0.000000  0.000000  0.000000
              occ2     2.000000  2.000000  2.000000  2.000000  2.000000  0.000000
        optdriver1          0
        optdriver2          6
           ortalg1         -2
           ortalg2          2
        paral_kgb1          1
        paral_kgb2          0
            rprim      0.0000000000E+00  5.0000000000E-01  5.0000000000E-01
                       5.0000000000E-01  0.0000000000E+00  5.0000000000E-01
                       5.0000000000E-01  5.0000000000E-01  0.0000000000E+00
          spgroup         225
           symrel      1  0  0   0  1  0   0  0  1      -1  0  0   0 -1  0   0  0 -1
                       0 -1  1   0 -1  0   1 -1  0       0  1 -1   0  1  0  -1  1  0
                      -1  0  0  -1  0  1  -1  1  0       1  0  0   1  0 -1   1 -1  0
                       0  1 -1   1  0 -1   0  0 -1       0 -1  1  -1  0  1   0  0  1
                      -1  0  0  -1  1  0  -1  0  1       1  0  0   1 -1  0   1  0 -1
                       0 -1  1   1 -1  0   0 -1  0       0  1 -1  -1  1  0   0  1  0
                       1  0  0   0  0  1   0  1  0      -1  0  0   0  0 -1   0 -1  0
                       0  1 -1   0  0 -1   1  0 -1       0 -1  1   0  0  1  -1  0  1
                      -1  0  1  -1  1  0  -1  0  0       1  0 -1   1 -1  0   1  0  0
                       0 -1  0   1 -1  0   0 -1  1       0  1  0  -1  1  0   0  1 -1
                       1  0 -1   0  0 -1   0  1 -1      -1  0  1   0  0  1   0 -1  1
                       0  1  0   0  0  1   1  0  0       0 -1  0   0  0 -1  -1  0  0
                       1  0 -1   0  1 -1   0  0 -1      -1  0  1   0 -1  1   0  0  1
                       0 -1  0   0 -1  1   1 -1  0       0  1  0   0  1 -1  -1  1  0
                      -1  0  1  -1  0  0  -1  1  0       1  0 -1   1  0  0   1 -1  0
                       0  1  0   1  0  0   0  0  1       0 -1  0  -1  0  0   0  0 -1
                       0  0 -1   0  1 -1   1  0 -1       0  0  1   0 -1  1  -1  0  1
                       1 -1  0   0 -1  1   0 -1  0      -1  1  0   0  1 -1   0  1  0
                       0  0  1   1  0  0   0  1  0       0  0 -1  -1  0  0   0 -1  0
                      -1  1  0  -1  0  0  -1  0  1       1 -1  0   1  0  0   1  0 -1
                       0  0  1   0  1  0   1  0  0       0  0 -1   0 -1  0  -1  0  0
                       1 -1  0   0 -1  0   0 -1  1      -1  1  0   0  1  0   0  1 -1
                       0  0 -1   1  0 -1   0  1 -1       0  0  1  -1  0  1   0 -1  1
                      -1  1  0  -1  0  1  -1  0  0       1 -1  0   1  0 -1   1  0  0
           timopt          -1
           tolvrs1     1.00000000E-08
           tolvrs2     0.00000000E+00
            typat      1  2
         wfoptalg1        114
         wfoptalg2          0
              wtk        0.00195    0.01563    0.01563    0.01563    0.00781    0.01172
                         0.04688    0.04688    0.04688    0.04688    0.04688    0.02344
                         0.01172    0.04688    0.04688    0.04688    0.02344    0.01172
                         0.04688    0.02344    0.00586    0.04688    0.09375    0.04688
                         0.04688    0.09375    0.04688    0.02344    0.01172
           xangst      0.0000000000E+00  0.0000000000E+00  0.0000000000E+00
                       2.0050000000E+00  2.0050000000E+00  2.0050000000E+00
            xcart      0.0000000000E+00  0.0000000000E+00  0.0000000000E+00
                       3.7889008964E+00  3.7889008964E+00  3.7889008964E+00
             xred      0.0000000000E+00  0.0000000000E+00  0.0000000000E+00
                       5.0000000000E-01  5.0000000000E-01  5.0000000000E-01
            znucl        3.00000    9.00000

 chkinp: Checking input parameters for consistency, jdtset=   1.

 chkinp: Checking input parameters for consistency, jdtset=   2.

== DATASET  1 ==================================================================
-   mpi_nproc: 116, omp_nthreads: -1 (-1 if OMP is not activated)

--- !DatasetInfo
iteration_state: {dtset: 1, }
dimensions: {natom: 2, nkpt: 29, mband: 9, nsppol: 1, nspinor: 1, nspden: 1, mpw: 324, }
cutoff_energies: {ecut:  40.0, pawecutdg:  -1.0, }
electrons: {nelect:   1.00000000E+01, charge:   0.00000000E+00, occopt:   1.00000000E+00, tsmear:   1.00000000E-02, }
meta: {optdriver: 0, ionmov: 0, optcell: 0, iscf: 7, paral_kgb: 1, }
...

 Real(R)+Recip(G) space primitive vectors, cartesian coordinates (Bohr,Bohr^-1):
 R(1)=  0.0000000  3.7889009  3.7889009  G(1)= -0.1319644  0.1319644  0.1319644
 R(2)=  3.7889009  0.0000000  3.7889009  G(2)=  0.1319644 -0.1319644  0.1319644
 R(3)=  3.7889009  3.7889009  0.0000000  G(3)=  0.1319644  0.1319644 -0.1319644
 Unit cell volume ucvol=  1.0878518E+02 bohr^3
 Angles (23,13,12)=  6.00000000E+01  6.00000000E+01  6.00000000E+01 degrees

 getcut: wavevector=  0.0000  0.0000  0.0000  ngfft=  32  32  32
         ecut(hartree)=     40.000   => boxcut(ratio)=   2.09762

--- Pseudopotential description ------------------------------------------------
- pspini: atom type   1  psp file is Li.psp8
- pspatm: opening atomic psp file    Li.psp8
- Li    ONCVPSP-3.2.3.1  r_core=   1.40824   1.10935
-  3.00000   3.00000    170503                znucl, zion, pspdat
    8   11    1    4       400   0.00000      pspcod,pspxc,lmax,lloc,mmax,r2well
    3.99000000000000    0.00000000000000    0.00000000000000   rchrg,fchrg,qchrg
     nproj     2     2
     extension_switch     1
  pspatm : epsatm=    2.74345787
         --- l  ekb(1:nproj) -->
             0   -4.951544   -1.544797
             1   -2.250662   -0.474685
 pspatm: atomic psp has been read  and splines computed

- pspini: atom type   2  psp file is F.psp8
[...]
- ugb_from_diago                  115.521  21.5       123.146  21.0            116      -1.00        0.94       0.94
- pspini                           58.608  10.9        58.717  10.0            232      -1.00        1.00       1.00
- fourwf%(pot)                     18.104   3.4        18.115   3.1          61788      -1.00        1.00       1.00
- timing timab                     13.308   2.5        13.309   2.3           1624      -1.00        1.00       1.00
- abinit(2)                         7.556   1.4         7.773   1.3            116      -1.00        0.97       0.97
- nonlop(apply)                     6.632   1.2         6.653   1.1          61788      -1.00        1.00       1.00
- invars2                           5.435   1.0         5.436   0.9            232      -1.00        1.00       1.00
- fourdp                            3.350   0.6         3.365   0.6          14500      -1.00        1.00       1.00
- xc:pot/=fourdp                    2.875   0.5         2.922   0.5           1160      -1.00        0.98       0.98
- ewald                             2.278   0.4         2.278   0.4            232      -1.00        1.00       1.00
- stress                            1.100   0.2         1.100   0.2            116      -1.00        1.00       1.00
- ewald2 (+vdw_dftd)                0.823   0.2         0.823   0.1            116      -1.00        1.00       1.00
- mkcore                            0.707   0.1         0.707   0.1            464      -1.00        1.00       1.00
- kpgsph                            0.684   0.1         0.685   0.1          13804      -1.00        1.00       1.00
- symrhg(no FFT)                    0.517   0.1         0.518   0.1            928      -1.00        1.00       1.00
- getghc-other                      0.486   0.1         0.473   0.1           -116      -1.00        1.03       1.03
- forces                            0.450   0.1         0.457   0.1            116      -1.00        0.98       0.98
- vtowfk(contrib)                   0.407   0.1         0.407   0.1            928      -1.00        1.00       1.00
- scfcv-scprqt                      0.380   0.1         0.387   0.1            928      -1.00        0.98       0.98
- newkpt(excl. rwwf   )             0.345   0.1         0.346   0.1           -116      -1.00        1.00       1.00
- nonlop(forces)                    0.275   0.1         0.276   0.0          10440      -1.00        1.00       1.00
- setsym                            0.211   0.0         0.211   0.0            116      -1.00        1.00       1.00
- prep_bandfft_tabs                 0.109   0.0         0.113   0.0            232      -1.00        0.97       0.97
- mkffnl                            0.070   0.0         0.072   0.0            348      -1.00        0.98       0.98
- vtowfk(ssdiag)                    0.052   0.0         0.053   0.0           -116      -1.00        0.98       0.98
- vtowfk  (1)                       0.035   0.0         0.036   0.0            928      -1.00        0.97       0.97
- inwffil(excl. calls)              0.015   0.0         0.016   0.0            116      -1.00        0.99       0.99
- others (127)                      0.000   0.0         0.000   0.0             -1      -1.00        0.00       0.00
-<END_TIMER>

- subtotal                        241.655  45.0       249.730  42.6                                  0.97       0.97

 Partitioning of abinit
- abinit                          536.755 100.0       586.426 100.0            116                   0.92       0.92

- abinit(1)                        21.760   4.1        25.898   4.4            116                   0.84       0.84
- abinit(2)                         7.556   1.4         7.773   1.3            116                   0.97       0.97
- indefo+macroin+invars2m           5.455   1.0         5.455   0.9            116                   1.00       1.00
- abinit(4)                        30.180   5.6        32.428   5.5            116                   0.93       0.93
- abinit(5)                        16.551   3.1        16.591   2.8            116                   1.00       1.00
- driver                          467.813  87.2       511.375  87.2            116                   0.91       0.91
- timana(1)                         0.190   0.0         0.196   0.0            116                   0.97       0.97
- timing timab                     13.308   2.5        13.309   2.3           1624                   1.00       1.00

[...]

 Partitioning of driver
- driver                          467.813  87.2       511.375  87.2            116                   0.91       0.91

- driver(bef. select case)          6.783   1.3        17.563   3.0            232                   0.39       0.39
- (other)                         460.869  85.9       493.644  84.2             -1                   0.93       0.93

[...]

 Partitioning of gstateimg+gstate
- gstateimg                       152.037  28.3       171.473  29.2            116                   0.89       0.89

- gstate(1)                         2.680   0.5         2.761   0.5            232                   0.97       0.97
- gstate(pspini)                   58.634  10.9        58.744  10.0            116                   1.00       1.00
- gstate(init rhor rhog)            0.400   0.1         0.403   0.1            116                   0.99       0.99
- gstate(...scfcv)                 44.148   8.2        60.100  10.2            116                   0.73       0.73
- gstate(prtwf)                    45.370   8.5        48.613   8.3            116                   0.93       0.93
- gstate(clnup1)                    0.377   0.1         0.410   0.1            116                   0.92       0.92

[...]

 Partitioning of scfcv_core
- scfcv_core                       43.696   8.1        59.614  10.2            116                   0.73       0.73

- scfcv_core(1)                     0.393   0.1         0.412   0.1            116                   0.95       0.95
- scfcv_core(iniloop, setv          2.976   0.6         3.026   0.5            928                   0.98       0.98
- scfcv_core(vtorho(f))            25.725   4.8        31.786   5.4            928                   0.81       0.81
- scfcv-scprqt                      0.380   0.1         0.387   0.1            928                   0.98       0.98
- scfcv_core(rhotov)                2.865   0.5         2.868   0.5            928                   1.00       1.00
- scfcv_core(mix pot)               7.912   1.5        17.501   3.0            812                   0.45       0.45
- scfcv_core(just after sc          0.173   0.0         0.200   0.0            116                   0.86       0.86
- scfcv_core(afterscfloop)          2.489   0.5         2.539   0.4            116                   0.98       0.98
- scfcv_core(outscfcv)              0.569   0.1         0.679   0.1            116                   0.84       0.84

[...]

 Partitioning of rhotov
- rhotov                            2.839   0.5         2.840   0.5            928                   1.00       1.00

- rhotov(rhotoxc)                   2.385   0.4         2.386   0.4            928                   1.00       1.00
- (other)                           0.351   0.1         0.351   0.1             -1                   1.00       1.00

[...]

 Partitioning of vtorho
- vtorho                           25.682   4.8        31.740   5.4            928                   0.81       0.81

- vtorho(bef. spin loop)            0.183   0.0         0.191   0.0            928                   0.95       0.95
- vtorho(bef. vtowfk)               0.239   0.0         0.248   0.0            928                   0.96       0.96
- vtowfk                           22.258   4.1        28.251   4.8            928                   0.79       0.79
- vtorho(aft. kpt loop)             0.206   0.0         0.207   0.0            928                   0.99       0.99
- vtorho(highest occ. eig)          0.123   0.0         0.123   0.0            928                   1.00       1.00
- vtorho(mkrho 2)                   1.173   0.2         1.200   0.2           1856                   0.98       0.98

[...]

 Partitioning of vtowfk
- vtowfk                           22.258   4.1        28.251   4.8            928                   0.79       0.79

- vtowfk(2)                        21.815   4.1        27.807   4.7           -116                   0.78       0.78
- prep_fourwf%vtow                  0.363   0.1         0.363   0.1           8352                   1.00       1.00

[...]

 Partitioning of getghc
- getghc                           25.222   4.7        25.241   4.3          61788                   1.00       1.00

- fourwf%getghc                    18.104   3.4        18.115   3.1          61788                   1.00       1.00
- nonlop%getghc                     6.632   1.2         6.653   1.1          61788                   1.00       1.00
- getghc-other                      0.486   0.1         0.473   0.1           -116                   1.03       1.03

[...]

 Partitioning of fourwf (upwards partitioning)
- fourwf                           18.437   3.4        18.449   3.1          66428                   1.00       1.00

- fourwf%getghc                    18.104   3.4        18.115   3.1          61788                   1.00       1.00
- fourwf%prep_four                  0.333   0.1         0.334   0.1           4640                   1.00       1.00

[...]

 Partitioning of prep_getghc
- prep_getghc                      11.412   2.1        11.430   1.9          52200                   1.00       1.00

- prep_getghc(before if)            0.118   0.0         0.120   0.0          52200                   0.99       0.99
- prep_getghc(alltoall)             0.359   0.1         0.363   0.1         104400                   0.99       0.99
- prep_getghc(getghc - 1 )         10.897   2.0        10.912   1.9          52200                   1.00       1.00

[...]

 Partitioning of prep_fourwf
- prep_fourwf                       0.363   0.1         0.363   0.1           8352                   1.00       1.00

- fourwf%prep_four                  0.333   0.1         0.334   0.1           4640                   1.00       1.00

[...]

 Partitioning of prep_nonlop
- prep_nonlop                       0.670   0.1         0.672   0.1          11020                   1.00       1.00

- nonlop%prep_nonl%forstrn          0.348   0.1         0.350   0.1            580                   0.99       0.99
- (other)                           0.301   0.1         0.301   0.1             -1                   1.00       1.00

[...]

 Partitioning of inwffil
- inwffil                           0.384   0.1         0.385   0.1            116                   1.00       1.00

- inwffil(call newkpt)              0.369   0.1         0.370   0.1            116                   1.00       1.00

[...]

 Partitioning of newkpt
- newkpt                            0.369   0.1         0.370   0.1            116                   1.00       1.00

- newkpt(after loop   )             0.238   0.0         0.238   0.0            116                   1.00       1.00

[...]

 Partitioning of newvtr
- newvtr                            7.805   1.5        17.383   3.0            812                   0.45       0.45

- newvtr(call prcref_PMA)           0.362   0.1         0.365   0.1            812                   0.99       0.99
- newvtr(aft. prcref_PMA)           6.850   1.3        16.407   2.8            812                   0.42       0.42
- newvtr(mean potential)            0.400   0.1         0.400   0.1            812                   1.00       1.00

[...]

 Partitioning of  fourdp (upwards partitioning)
- fourdp                            3.350   0.6         3.365   0.6          14500                   1.00       1.00

- fourdp%(other)                    3.350   0.6         3.365   0.6          14500                   1.00       1.00

[...]

 Partitioning of afterscfloop
- afterscfloop                      2.383   0.4         2.420   0.4            116                   0.98       0.98

- afterscfloop(forstr)              2.290   0.4         2.325   0.4            116                   0.99       0.99

[...]

 Partitioning of forstr
- forstr                            2.218   0.4         2.245   0.4            116                   0.99       0.99

- forstr(forstrnps)                 0.529   0.1         0.532   0.1            116                   0.99       0.99
- forstr(forces)                    0.578   0.1         0.601   0.1            116                   0.96       0.96
- forstr(stress)                    1.111   0.2         1.111   0.2            116                   1.00       1.00

[...]

 Partitioning of forstrnps
- forstrnps                         0.515   0.1         0.518   0.1            116                   0.99       0.99

- forstrnps(nonlop+prep_ba          0.352   0.1         0.354   0.1            580                   0.99       0.99

[...]

 Partitioning of outscfcv
- outscfcv                          0.541   0.1         0.649   0.1            116                   0.83       0.83

- outscfcv([PAW]prtden)             0.063   0.0         0.155   0.0            116                   0.41       0.41
- outscfcv(calcdenmagsph)           0.328   0.1         0.337   0.1            116                   0.97       0.97

[...]

 Partitioning of lobpcgwf2 core engine
- lobpcgwf2                        21.763   4.1        27.754   4.7           1160                   0.78       0.78

- lobpcg_run                       21.280   4.0        27.267   4.6           1160                   0.78       0.78
- lobpcg_orthoWrtPrev               0.476   0.1         0.476   0.1          46400                   1.00       1.00
- lobpcg_Bortho                     5.427   1.0        11.393   1.9          53360                   0.48       0.48
- lobpcg_RayleighRitz               3.269   0.6         3.271   0.6          53360                   1.00       1.00
- lobpcg_maxResidu                  0.204   0.0         0.206   0.0          93960                   0.99       0.99
- lobpcg_run@getAX_BX              11.580   2.2        11.600   2.0          52200                   1.00       1.00
- lobpcg_RayleighRitz@hegv          0.972   0.2         0.974   0.2          53360                   1.00       1.00

- subtotal                         43.305   8.1        55.286   9.4                                  0.78       0.78

 Partitioning of low-level xgBlock type
- xgBlock_potrf                     2.823   0.5         6.738   1.1          53360                   0.42       0.42

- xgBlock_trsm                      1.936   0.4         3.991   0.7         160080                   0.49       0.49
- xgBlock_gemm                      2.606   0.5         2.632   0.4         672800                   0.99       0.99
- xgBlock_hegvx                     0.868   0.2         0.874   0.1          41760                   0.99       0.99
- xgBlock_copy                      0.210   0.0         0.210   0.0         389760                   1.00       1.00

- subtotal                          5.693   1.1         7.780   1.3                                  0.73       0.73
-
-
- forstrnps:synchr                  0.051   0.0         0.051   0.0            232                   1.00       1.00
- alltoall%back_wf                  1.024   0.2         1.017   0.2          56840                   1.01       1.01
- alltoall%forw_wf                  0.702   0.1         0.701   0.1          52200                   1.00       1.00
- subtotal                          1.776   0.3         1.770   0.3                                  1.00       1.00

 Additional information
- timana(1)                         0.190   0.0         0.196   0.0            116                   0.97       0.97
- total timab                      14.772   2.8        14.773   2.5       25053481                   1.00       1.00
- fourwf                           18.437   3.4        18.449   3.1          66428                   1.00       1.00
- mklocl(2)                         0.085   0.0         0.085   0.0            116                   1.00       1.00
- nonlop(total)                     7.255   1.4         7.279   1.2          72808                   1.00       1.00
- xc:fourdp                         1.679   0.3         1.674   0.3           9280                   1.00       1.00
- read_rho                         61.728  11.5        61.760  10.5            116                   1.00       1.00

 timana : in multi dataset mode, the more detailed analysis is not done.

 Suggested references for the acknowledgment of ABINIT usage.

 Calculation completed.
.Delivered   0 WARNINGs and   0 COMMENTs to log file.