.Version 9.9.2 of ABINIT

 ABINIT is a project of the Universite Catholique de Louvain,
 Corning Inc. and other collaborators, see ~abinit/doc/developers/contributors.txt .
 acknowledgments of the ABINIT effort.

.Starting date : Fri 17 Feb 2023.
- ( at 10h05 )

- input  file    -> run.abi
- output file    -> run.abo
- root for input  files -> ../indata_ac
- root for output files -> outdata_ac

 DATASET    1 : space group Fm -3 m (#225); Bravais cF (face-center cubic)
     intxc =       0    ionmov =       0      iscf =       7    lmnmax =       5
     lnmax =       5     mgfft =      36  mpssoang =       3    mqgrid =    3001
     natom =       2  nloc_mem =       1    nspden =       1   nspinor =       1
    nsppol =       1      nsym =      48    n1xccc =    2501    ntypat =       2
    occopt =       1   xclevel =       2
-    mband =         480        mffmem =           1         mkmem =           1
       mpw =        1588          nfft =       46656          nkpt =          29
  Rough estimation (10% accuracy) of disk space for files :

 DATASET    2 : space group Fm -3 m (#225); Bravais cF (face-center cubic)
     intxc =       0    ionmov =       0      iscf =       7    lmnmax =       5
     lnmax =       5     mgfft =      36  mpssoang =       3    mqgrid =    3001
     natom =       2  nloc_mem =       1    nspden =       1   nspinor =       1
    nsppol =       1      nsym =      48    n1xccc =    2501    ntypat =       2
    occopt =       1   xclevel =       2
-    mband =         480        mffmem =           1         mkmem =           1
       mpw =        1588          nfft =       46656          nkpt =          29
  Rough estimation (10% accuracy) of disk space for files :

------------- Echo of variables that govern the present computation ------------
-
- outvars: echo of selected default values
-   iomode0 =  0 , fftalg0 =312 , wfoptalg0 =  0
-
- outvars: echo of global parameters not present in the input file
-  max_nthreads =    0
-
 -outvars: echo values of preprocessed input variables --------
            acell      8.0364717690E+00  8.0364717690E+00  8.0364717690E+00 Bohr
              amu      6.94100000E+00  1.89984032E+01
             bdgw           1       8       1       8
           diemac      1.20000000E+01
             ecut      4.00000000E+01 Hartree
          ecuteps      1.20000000E+01 Hartree
         ecutsigx      4.00000000E+01 Hartree
          ecutwfn      4.00000000E+01 Hartree
-          fftalg         312
           getscr1          0
           getscr2         -1
           istwfk        1    0    0    0    1    0    0    0    0    0
                         0    0    0    0    0    0    0    0    0    0
                         1    0    0    0    0    0    0    0    0
              ixc          11
           jdtset        1    2
              kpt      0.00000000E+00  0.00000000E+00  0.00000000E+00
                       1.25000000E-01  0.00000000E+00  0.00000000E+00
                       2.50000000E-01  0.00000000E+00  0.00000000E+00
                       3.75000000E-01  0.00000000E+00  0.00000000E+00
                       5.00000000E-01  0.00000000E+00  0.00000000E+00
                       1.25000000E-01  1.25000000E-01  0.00000000E+00
                       2.50000000E-01  1.25000000E-01  0.00000000E+00
                       3.75000000E-01  1.25000000E-01  0.00000000E+00
                       5.00000000E-01  1.25000000E-01  0.00000000E+00
                      -3.75000000E-01  1.25000000E-01  0.00000000E+00
                      -2.50000000E-01  1.25000000E-01  0.00000000E+00
                      -1.25000000E-01  1.25000000E-01  0.00000000E+00
                       2.50000000E-01  2.50000000E-01  0.00000000E+00
                       3.75000000E-01  2.50000000E-01  0.00000000E+00
                       5.00000000E-01  2.50000000E-01  0.00000000E+00
                      -3.75000000E-01  2.50000000E-01  0.00000000E+00
                      -2.50000000E-01  2.50000000E-01  0.00000000E+00
                       3.75000000E-01  3.75000000E-01  0.00000000E+00
                       5.00000000E-01  3.75000000E-01  0.00000000E+00
                      -3.75000000E-01  3.75000000E-01  0.00000000E+00
                       5.00000000E-01  5.00000000E-01  0.00000000E+00
                       3.75000000E-01  2.50000000E-01  1.25000000E-01
                       5.00000000E-01  2.50000000E-01  1.25000000E-01
                      -3.75000000E-01  2.50000000E-01  1.25000000E-01
                       5.00000000E-01  3.75000000E-01  1.25000000E-01
                      -3.75000000E-01  3.75000000E-01  1.25000000E-01
                      -2.50000000E-01  3.75000000E-01  1.25000000E-01
                      -3.75000000E-01  5.00000000E-01  1.25000000E-01
                      -2.50000000E-01  5.00000000E-01  2.50000000E-01
            kptgw      0.00000000E+00  0.00000000E+00  0.00000000E+00
                       5.00000000E-01  5.00000000E-01  0.00000000E+00
         kptrlatt        8    0    0      0    8    0      0    0    8
          kptrlen      4.54611495E+01
P           mkmem           1
            natom           2
            nband         480
           ndtset           2
            ngfft          36      36      36
             nkpt          29
           nkptgw           2
           npweps         259
          npwsigx        1471
           npwwfn        1471
            nstep          50
             nsym          48
           ntypat           2
              occ      2.000000  2.000000  2.000000  2.000000  2.000000  0.000000
                       0.000000  0.000000  0.000000  0.000000  0.000000  0.000000
                       0.000000  0.000000  0.000000  0.000000  0.000000  0.000000
                       0.000000  0.000000  0.000000  0.000000  0.000000  0.000000
                       0.000000  0.000000  0.000000  0.000000  0.000000  0.000000
                       0.000000  0.000000  0.000000  0.000000  0.000000  0.000000
                       0.000000  0.000000  0.000000  0.000000  0.000000  0.000000
                       0.000000  0.000000  0.000000  0.000000  0.000000  0.000000
                       0.000000  0.000000  0.000000  0.000000  0.000000  0.000000
                       0.000000  0.000000  0.000000  0.000000  0.000000  0.000000
                       0.000000  0.000000  0.000000  0.000000  0.000000  0.000000
                       0.000000  0.000000  0.000000  0.000000  0.000000  0.000000
                       0.000000  0.000000  0.000000  0.000000  0.000000  0.000000
                       0.000000  0.000000  0.000000  0.000000  0.000000  0.000000
                       0.000000  0.000000  0.000000  0.000000  0.000000  0.000000
                       0.000000  0.000000  0.000000  0.000000  0.000000  0.000000
                       0.000000  0.000000  0.000000  0.000000  0.000000  0.000000
                       0.000000  0.000000  0.000000  0.000000  0.000000  0.000000
                       0.000000  0.000000  0.000000  0.000000  0.000000  0.000000
                       0.000000  0.000000  0.000000  0.000000  0.000000  0.000000
                       0.000000  0.000000  0.000000  0.000000  0.000000  0.000000
                       0.000000  0.000000  0.000000  0.000000  0.000000  0.000000
                       0.000000  0.000000  0.000000  0.000000  0.000000  0.000000
                       0.000000  0.000000  0.000000  0.000000  0.000000  0.000000
                       0.000000  0.000000  0.000000  0.000000  0.000000  0.000000
                       0.000000  0.000000  0.000000  0.000000  0.000000  0.000000
                       0.000000  0.000000  0.000000  0.000000  0.000000  0.000000
                       0.000000  0.000000  0.000000  0.000000  0.000000  0.000000
                       0.000000  0.000000  0.000000  0.000000  0.000000  0.000000
                       0.000000  0.000000  0.000000  0.000000  0.000000  0.000000
                       0.000000  0.000000  0.000000  0.000000  0.000000  0.000000
                       0.000000  0.000000  0.000000  0.000000  0.000000  0.000000
                       0.000000  0.000000  0.000000  0.000000  0.000000  0.000000
                       0.000000  0.000000  0.000000  0.000000  0.000000  0.000000
                       0.000000  0.000000  0.000000  0.000000  0.000000  0.000000
                       0.000000  0.000000  0.000000  0.000000  0.000000  0.000000
                       0.000000  0.000000  0.000000  0.000000  0.000000  0.000000
                       0.000000  0.000000  0.000000  0.000000  0.000000  0.000000
                       0.000000  0.000000  0.000000  0.000000  0.000000  0.000000
                       0.000000  0.000000  0.000000  0.000000  0.000000  0.000000
                       0.000000  0.000000  0.000000  0.000000  0.000000  0.000000
                       0.000000  0.000000  0.000000  0.000000  0.000000  0.000000
                       0.000000  0.000000  0.000000  0.000000  0.000000  0.000000
                       0.000000  0.000000  0.000000  0.000000  0.000000  0.000000
                       0.000000  0.000000  0.000000  0.000000  0.000000  0.000000
                       0.000000  0.000000  0.000000  0.000000  0.000000  0.000000
                       0.000000  0.000000  0.000000  0.000000  0.000000  0.000000
                       0.000000  0.000000  0.000000  0.000000  0.000000  0.000000
                       0.000000  0.000000  0.000000  0.000000  0.000000  0.000000
                       0.000000  0.000000  0.000000  0.000000  0.000000  0.000000
                       0.000000  0.000000  0.000000  0.000000  0.000000  0.000000
                       0.000000  0.000000  0.000000  0.000000  0.000000  0.000000
                       0.000000  0.000000  0.000000  0.000000  0.000000  0.000000
                       0.000000  0.000000  0.000000  0.000000  0.000000  0.000000
                       0.000000  0.000000  0.000000  0.000000  0.000000  0.000000
                       0.000000  0.000000  0.000000  0.000000  0.000000  0.000000
                       0.000000  0.000000  0.000000  0.000000  0.000000  0.000000
                       0.000000  0.000000  0.000000  0.000000  0.000000  0.000000
                       0.000000  0.000000  0.000000  0.000000  0.000000  0.000000
                       0.000000  0.000000  0.000000  0.000000  0.000000  0.000000
                       0.000000  0.000000  0.000000  0.000000  0.000000  0.000000
[...]
                       0.000000  0.000000  0.000000  0.000000  0.000000  0.000000
                       0.000000  0.000000  0.000000  0.000000  0.000000  0.000000
                       0.000000  0.000000  0.000000  0.000000  0.000000  0.000000
                       0.000000  0.000000  0.000000  0.000000  0.000000  0.000000
                       0.000000  0.000000  0.000000  0.000000  0.000000  0.000000
                       0.000000  0.000000  0.000000  0.000000  0.000000  0.000000
                       0.000000  0.000000  0.000000  0.000000  0.000000  0.000000
                       0.000000  0.000000  0.000000  0.000000  0.000000  0.000000
[...]
                       0.000000  0.000000  0.000000  0.000000  0.000000  0.000000
                       0.000000  0.000000  0.000000  0.000000  0.000000  0.000000
                       0.000000  0.000000  0.000000  0.000000  0.000000  0.000000
                       0.000000  0.000000  0.000000  0.000000  0.000000  0.000000
                       0.000000  0.000000  0.000000  0.000000  0.000000  0.000000
                       0.000000  0.000000  0.000000  0.000000  0.000000  0.000000
                       0.000000  0.000000  0.000000  0.000000  0.000000  0.000000
                       0.000000  0.000000  0.000000  0.000000  0.000000  0.000000
                       0.000000  0.000000  0.000000  0.000000  0.000000  0.000000
                       0.000000  0.000000  0.000000  0.000000  0.000000  0.000000
                       0.000000  0.000000  0.000000  0.000000  0.000000  0.000000
                       0.000000  0.000000  0.000000  0.000000  0.000000  0.000000
                       0.000000  0.000000  0.000000  0.000000  0.000000  0.000000
                       0.000000  0.000000  0.000000  0.000000  0.000000  0.000000
                       0.000000  0.000000  0.000000  0.000000  0.000000  0.000000
                       0.000000  0.000000  0.000000  0.000000  0.000000  0.000000
                       0.000000  0.000000  0.000000  0.000000  0.000000  0.000000
                       0.000000  0.000000  0.000000  0.000000  0.000000  0.000000
                       0.000000  0.000000  0.000000  0.000000  0.000000  0.000000
                       0.000000  0.000000  0.000000  0.000000  0.000000  0.000000
[...]
                       0.000000  0.000000  0.000000  0.000000  0.000000  0.000000
                       0.000000  0.000000  0.000000  0.000000  0.000000  0.000000
                       0.000000  0.000000  0.000000  0.000000  0.000000  0.000000
                       0.000000  0.000000  0.000000  0.000000  0.000000  0.000000
                       0.000000  0.000000  0.000000  0.000000  0.000000  0.000000
                       0.000000  0.000000  0.000000  0.000000  0.000000  0.000000
                       0.000000  0.000000  0.000000  0.000000  0.000000  0.000000
                       0.000000  0.000000  0.000000  0.000000  0.000000  0.000000
                       0.000000  0.000000  0.000000  0.000000  0.000000  0.000000
                       0.000000  0.000000  0.000000  0.000000  0.000000  0.000000
                       0.000000  0.000000  0.000000  0.000000  0.000000  0.000000
                       0.000000  0.000000  0.000000  0.000000  0.000000  0.000000
                       0.000000  0.000000  0.000000  0.000000  0.000000  0.000000
                       0.000000  0.000000  0.000000  0.000000  0.000000  0.000000
                       0.000000  0.000000  0.000000  0.000000  0.000000  0.000000
        optdriver1          3
        optdriver2          4
            rprim      0.0000000000E+00  5.0000000000E-01  5.0000000000E-01
                       5.0000000000E-01  0.0000000000E+00  5.0000000000E-01
                       5.0000000000E-01  5.0000000000E-01  0.0000000000E+00
          spgroup         225
           strten1     0.0000000000E+00  0.0000000000E+00  0.0000000000E+00
                       0.0000000000E+00  0.0000000000E+00  0.0000000000E+00
           strten2     0.0000000000E+00  0.0000000000E+00  0.0000000000E+00
                       0.0000000000E+00  0.0000000000E+00  0.0000000000E+00
           symrel      1  0  0   0  1  0   0  0  1      -1  0  0   0 -1  0   0  0 -1
                       0 -1  1   0 -1  0   1 -1  0       0  1 -1   0  1  0  -1  1  0
                      -1  0  0  -1  0  1  -1  1  0       1  0  0   1  0 -1   1 -1  0
                       0  1 -1   1  0 -1   0  0 -1       0 -1  1  -1  0  1   0  0  1
                      -1  0  0  -1  1  0  -1  0  1       1  0  0   1 -1  0   1  0 -1
                       0 -1  1   1 -1  0   0 -1  0       0  1 -1  -1  1  0   0  1  0
                       1  0  0   0  0  1   0  1  0      -1  0  0   0  0 -1   0 -1  0
                       0  1 -1   0  0 -1   1  0 -1       0 -1  1   0  0  1  -1  0  1
                      -1  0  1  -1  1  0  -1  0  0       1  0 -1   1 -1  0   1  0  0
                       0 -1  0   1 -1  0   0 -1  1       0  1  0  -1  1  0   0  1 -1
                       1  0 -1   0  0 -1   0  1 -1      -1  0  1   0  0  1   0 -1  1
                       0  1  0   0  0  1   1  0  0       0 -1  0   0  0 -1  -1  0  0
                       1  0 -1   0  1 -1   0  0 -1      -1  0  1   0 -1  1   0  0  1
                       0 -1  0   0 -1  1   1 -1  0       0  1  0   0  1 -1  -1  1  0
                      -1  0  1  -1  0  0  -1  1  0       1  0 -1   1  0  0   1 -1  0
                       0  1  0   1  0  0   0  0  1       0 -1  0  -1  0  0   0  0 -1
                       0  0 -1   0  1 -1   1  0 -1       0  0  1   0 -1  1  -1  0  1
                       1 -1  0   0 -1  1   0 -1  0      -1  1  0   0  1 -1   0  1  0
                       0  0  1   1  0  0   0  1  0       0  0 -1  -1  0  0   0 -1  0
                      -1  1  0  -1  0  0  -1  0  1       1 -1  0   1  0  0   1  0 -1
                       0  0  1   0  1  0   1  0  0       0  0 -1   0 -1  0  -1  0  0
                       1 -1  0   0 -1  0   0 -1  1      -1  1  0   0  1  0   0  1 -1
                       0  0 -1   1  0 -1   0  1 -1       0  0  1  -1  0  1   0 -1  1
                      -1  1  0  -1  0  1  -1  0  0       1 -1  0   1  0 -1   1  0  0
           timopt          -1
            typat      1  2
              wtk        0.00195    0.01563    0.01563    0.01563    0.00781    0.01172
                         0.04688    0.04688    0.04688    0.04688    0.04688    0.02344
                         0.01172    0.04688    0.04688    0.04688    0.02344    0.01172
                         0.04688    0.02344    0.00586    0.04688    0.09375    0.04688
                         0.04688    0.09375    0.04688    0.02344    0.01172
           xangst      0.0000000000E+00  0.0000000000E+00  0.0000000000E+00
                       2.1263588488E+00  2.1263588488E+00  2.1263588488E+00
            xcart      0.0000000000E+00  0.0000000000E+00  0.0000000000E+00
                       4.0182358845E+00  4.0182358845E+00  4.0182358845E+00
             xred      0.0000000000E+00  0.0000000000E+00  0.0000000000E+00
                       5.0000000000E-01  5.0000000000E-01  5.0000000000E-01
            znucl        3.00000    9.00000

 Test the timer :
  a combined call timab(*,1,tsec) + timab(*,2,tsec) is

-
-  as well as % of the time and number of calls for node 0
-
-<BEGIN_TIMER mpi_nprocs = 128, omp_nthreads = 1, mpi_rank = 0>
- cpu_time =           66.2, wall_time =           66.8
-
-                                                                        (-1=no count)
- sigma/=fourdp                    14.699   0.2        14.765   0.2              1      -1.00        1.00       1.00
- wfd_read_wfk                      2.621   0.0         2.634   0.0              2      -1.00        0.99       0.99
- pspini                            0.505   0.0         0.525   0.0              2      -1.00        0.96       0.96
- abinit(2)                         0.132   0.0         0.162   0.0              1      -1.00        0.81       0.81
- timing timab                      0.119   0.0         0.119   0.0             14      -1.00        1.00       1.00
- invars2                           0.051   0.0         0.051   0.0              2      -1.00        1.00       1.00
- fourdp                            0.036   0.0         0.066   0.0             34      -1.00        0.54       0.54
- xc:pot/=fourdp                    0.034   0.0         0.034   0.0              3      -1.00        0.99       0.99
- ewald                             0.021   0.0         0.021   0.0              2      -1.00        1.00       1.00
- mkffnl                            0.012   0.0         0.012   0.0             29      -1.00        1.00       1.00
- others (145)                      0.013   0.0         0.013   0.0             -1      -1.00        1.00       1.00
-<END_TIMER>
-
- subtotal                         18.242   0.2        18.403   0.2                                  0.99       0.99

- as well as % of the total time and number of calls

-<BEGIN_TIMER mpi_nprocs = 128, omp_nthreads = 1, mpi_rank = world>
- cpu_time =        8519.9, wall_time =        8542.2
-
-                                                                        (-1=no count)
- sigma/=fourdp                  1868.700  21.9      1869.461  21.9            128      -1.00        1.00       1.00
- wfd_read_wfk                    336.993   4.0       337.123   3.9            256      -1.00        1.00       1.00
- pspini                           64.325   0.8        65.442   0.8            256      -1.00        0.98       0.98
- timing timab                     14.635   0.2        14.636   0.2           1792      -1.00        1.00       1.00
- abinit(2)                         8.480   0.1         8.655   0.1            128      -1.00        0.98       0.98
- invars2                           6.403   0.1         6.405   0.1            256      -1.00        1.00       1.00
- fourdp                            4.996   0.1         8.441   0.1           4352      -1.00        0.59       0.59
- xc:pot/=fourdp                    4.045   0.0         4.059   0.0            384      -1.00        1.00       1.00
- ewald                             2.600   0.0         2.602   0.0            256      -1.00        1.00       1.00
- mkffnl                            1.168   0.0         1.162   0.0           3712      -1.00        1.01       1.01
- mkcore                            0.859   0.0         0.859   0.0            256      -1.00        1.00       1.00
- kpgsph                            0.492   0.0         0.491   0.0          38202      -1.00        1.00       1.00
- symrhg(no FFT)                    0.263   0.0         0.264   0.0            256      -1.00        1.00       1.00
- others (142)                      0.000   0.0         0.000   0.0             -1      -1.00        0.00       0.00
-<END_TIMER>

- subtotal                       2313.960  27.2      2319.599  27.2                                  1.00       1.00

 Partitioning of abinit
- abinit                         8519.855 100.0      8542.201 100.0            128                   1.00       1.00

- abinit(1)                        24.564   0.3        29.057   0.3            128                   0.85       0.85
- abinit(2)                         8.480   0.1         8.655   0.1            128                   0.98       0.98
- indefo+macroin+invars2m           6.691   0.1         6.693   0.1            128                   1.00       1.00
- abinit(4)                        30.976   0.4        32.800   0.4            128                   0.94       0.94
- abinit(5)                        13.670   0.2        13.712   0.2            128                   1.00       1.00
- driver                         8449.909  99.2      8466.328  99.1            128                   1.00       1.00
- timing timab                     14.635   0.2        14.636   0.2           1792                   1.00       1.00

[...]

 Partitioning of driver
- driver                         8449.909  99.2      8466.328  99.1            128                   1.00       1.00

- driver(bef. select case)          4.275   0.1        10.902   0.1            256                   0.39       0.39
- screening                      6555.721  76.9      6564.697  76.9            128                   1.00       1.00
- sigma                          1868.790  21.9      1869.551  21.9            128                   1.00       1.00
- (other)                          20.799   0.2        20.839   0.2             -1                   1.00       1.00

[...]

 Partitioning of screening
- screening                      6555.721  76.9      6564.697  76.9            128                   1.00       1.00

- screening(init1)                196.460   2.3       197.961   2.3            128                   0.99       0.99
- screening(wfs)                  226.750   2.7       226.912   2.7            128                   1.00       1.00
- screening(1)                      7.620   0.1         7.622   0.1            128                   1.00       1.00
- screening(density)               27.946   0.3        33.798   0.4            128                   0.83       0.83
- screening(2)                      4.814   0.1         4.837   0.1            128                   1.00       1.00
- screening(cchi0q0)              103.029   1.2       103.127   1.2            128                   1.00       1.00
- screening(cchi0)               5942.780  69.8      5943.924  69.6           3584                   1.00       1.00
- screening(q-loop,end)            45.634   0.5        45.831   0.5           3712                   1.00       1.00

[...]

 Partitioning of sigma
- sigma                          1868.790  21.9      1869.551  21.9            128                   1.00       1.00

- sigma(Init1)                      4.974   0.1         4.975   0.1            256                   1.00       1.00
- setup_sigma                      84.200   1.0        84.325   1.0            128                   1.00       1.00
- sigma(rdkss)                    116.175   1.4       116.192   1.4            128                   1.00       1.00
- sigma(Init2)                      2.453   0.0         2.460   0.0            128                   1.00       1.00
- sigma(make_vhxc)                 18.714   0.2        18.716   0.2            128                   1.00       1.00
- sigma(vHxc_me)                    3.480   0.0         3.528   0.0            128                   0.99       0.99
- sigma(hqp_init)                  24.653   0.3        24.659   0.3            128                   1.00       1.00
- sigma(getW)                      17.242   0.2        17.246   0.2            128                   1.00       1.00
- sigma(calc_sigx_me)             126.041   1.5       126.108   1.5            128                   1.00       1.00
- sigma(calc_sigc_me)            1468.487  17.2      1468.774  17.2            256                   1.00       1.00

[...]

 Partitioning of calc_sigc_me
- calc_sigc_me                   1468.487  17.2      1468.774  17.2            256                   1.00       1.00

- calc_sigc_me(Init)               23.245   0.3        23.284   0.3            256                   1.00       1.00
- calc_sigc_me(Init q)              2.746   0.0         2.753   0.0          11264                   1.00       1.00
- calc_sigc_me(loop)             1332.574  15.6      1332.730  15.6          11264                   1.00       1.00
- calc_sigc_me(xmpi_sum)          109.450   1.3       109.504   1.3            256                   1.00       1.00

- subtotal                       1468.431  17.2      1468.727  17.2                                  1.00       1.00

 Partitioning of  fourdp (upwards partitioning)
- fourdp                            4.996   0.1         8.441   0.1           4352                   0.59       0.59

- fourdp%(other)                    4.830   0.1         8.275   0.1           4096                   0.58       0.58

- subtotal                          4.996   0.1         8.441   0.1                                  0.59       0.59
-
-
- subtotal                          0.000   0.0         0.000   0.0                                  0.00       0.00

 Additional information
- timana(1)                         0.113   0.0         0.115   0.0            128                   0.98       0.98
- total timab                      15.158   0.2        15.160   0.2       25796858                   1.00       1.00
- xc:fourdp                         2.213   0.0         2.210   0.0           3072                   1.00       1.00
- calc_sigc_me(1)             2582927.234******  17065174.176******          42240                   0.15       0.15
- calc_sigc_me(rho_tw_g)           49.405   0.6        49.435   0.6          42240                   1.00       1.00
- calc_sigc_me(2)                1280.345  15.0      1280.688  15.0         351840                   1.00       1.00
- calc_sigc_me(sigma_me)            0.501   0.0         0.503   0.0         351840                   1.00       1.00
- cchi0                          5942.673  69.8      5943.831  69.6           3584                   1.00       1.00

 timana : in multi dataset mode, the more detailed analysis is not done.

 Suggested references for the acknowledgment of ABINIT usage.

 Calculation completed.
.Delivered   0 WARNINGs and   2 COMMENTs to log file.