.Version 9.9.2 of ABINIT

 ABINIT is a project of the Universite Catholique de Louvain,
 Corning Inc. and other collaborators, see ~abinit/doc/developers/contributors.txt .
 acknowledgments of the ABINIT effort.

.Starting date : Fri 17 Feb 2023.
- ( at 02h00 )

- input  file    -> run.abi
- output file    -> run.abo
- root for input  files -> indata_gs
- root for output files -> outdata_gs

 DATASET    1 : space group F-4 3 m (#216); Bravais cF (face-center cubic)
     intxc =       0    ionmov =       0      iscf =       7    lmnmax =       4
     lnmax =       4     mgfft =      30  mpssoang =       2    mqgrid =    3001
     natom =       2  nloc_mem =       1    nspden =       1   nspinor =       1
    nsppol =       1      nsym =      24    n1xccc =    2501    ntypat =       2
    occopt =       1   xclevel =       2
-    mband =           8        mffmem =           1         mkmem =           1
       mpw =         148          nfft =       13500          nkpt =          29
  Rough estimation (10% accuracy) of disk space for files :

 DATASET    2 : space group F-4 3 m (#216); Bravais cF (face-center cubic)
     intxc =       0    ionmov =       0      iscf =       7    lmnmax =       4
     lnmax =       4     mgfft =      30  mpssoang =       2    mqgrid =    3001
     natom =       2  nloc_mem =       1    nspden =       1   nspinor =       1
    nsppol =       1      nsym =      24    n1xccc =    2501    ntypat =       2
    occopt =       1   xclevel =       2
-    mband =           5        mffmem =           1         mkmem =           1
       mpw =        1174          nfft =       27000          nkpt =          29
  Rough estimation (10% accuracy) of disk space for files :

------------- Echo of variables that govern the present computation ------------
-
- outvars: echo of selected default values
-   iomode0 =  0 , fftalg0 =312 , wfoptalg0 =  0
-
- outvars: echo of global parameters not present in the input file
-  max_nthreads =    0
-
 -outvars: echo values of preprocessed input variables --------
-          iomode1          1
-          iomode2          0
            acell      6.8313599704E+00  6.8313599704E+00  6.8313599704E+00 Bohr
              amu      1.08110000E+01  1.40067400E+01
        autoparal1          1
        autoparal2          0
           bandpp1          2
           bandpp2          1
     densfor_pred1          6
     densfor_pred2          2
           diemac      1.20000000E+01
             ecut      4.50000000E+01 Hartree
-          fftalg         312
           getden1          0
           getden2         -1
           istwfk        1    0    0    0    1    0    0    0    0    0
                         0    0    0    0    0    0    0    0    0    0
                         1    0    0    0    0    0    0    0    0
              ixc          11
           jdtset        1    2
              kpt      0.00000000E+00  0.00000000E+00  0.00000000E+00
                       1.25000000E-01  0.00000000E+00  0.00000000E+00
                       2.50000000E-01  0.00000000E+00  0.00000000E+00
                       3.75000000E-01  0.00000000E+00  0.00000000E+00
                       5.00000000E-01  0.00000000E+00  0.00000000E+00
                       1.25000000E-01  1.25000000E-01  0.00000000E+00
                       2.50000000E-01  1.25000000E-01  0.00000000E+00
                       3.75000000E-01  1.25000000E-01  0.00000000E+00
                       5.00000000E-01  1.25000000E-01  0.00000000E+00
                      -3.75000000E-01  1.25000000E-01  0.00000000E+00
                      -2.50000000E-01  1.25000000E-01  0.00000000E+00
                      -1.25000000E-01  1.25000000E-01  0.00000000E+00
                       2.50000000E-01  2.50000000E-01  0.00000000E+00
                       3.75000000E-01  2.50000000E-01  0.00000000E+00
                       5.00000000E-01  2.50000000E-01  0.00000000E+00
                      -3.75000000E-01  2.50000000E-01  0.00000000E+00
                      -2.50000000E-01  2.50000000E-01  0.00000000E+00
                       3.75000000E-01  3.75000000E-01  0.00000000E+00
                       5.00000000E-01  3.75000000E-01  0.00000000E+00
                      -3.75000000E-01  3.75000000E-01  0.00000000E+00
                       5.00000000E-01  5.00000000E-01  0.00000000E+00
                       3.75000000E-01  2.50000000E-01  1.25000000E-01
                       5.00000000E-01  2.50000000E-01  1.25000000E-01
                      -3.75000000E-01  2.50000000E-01  1.25000000E-01
                       5.00000000E-01  3.75000000E-01  1.25000000E-01
                      -3.75000000E-01  3.75000000E-01  1.25000000E-01
                      -2.50000000E-01  3.75000000E-01  1.25000000E-01
                      -3.75000000E-01  5.00000000E-01  1.25000000E-01
                      -2.50000000E-01  5.00000000E-01  2.50000000E-01
         kptrlatt        8    0    0      0    8    0      0    0    8
          kptrlen      3.86440077E+01
P           mkmem           1
            natom           2
            nband1          8
            nband2          5
           ndtset           2
            ngfft          30      30      30
             nkpt          29
-          npband1          4
-          npband2          1
-           npfft1          2
-           npfft2          1
-        np_spkpt1         29
-        np_spkpt2          1
            nstep          50
             nsym          24
           ntypat           2
              occ1     2.000000  2.000000  2.000000  2.000000  0.000000  0.000000
                       0.000000  0.000000
              occ2     2.000000  2.000000  2.000000  2.000000  0.000000
        optdriver1          0
        optdriver2          6
           ortalg1         -2
           ortalg2          2
        paral_kgb1          1
        paral_kgb2          0
            rprim      0.0000000000E+00  5.0000000000E-01  5.0000000000E-01
                       5.0000000000E-01  0.0000000000E+00  5.0000000000E-01
                       5.0000000000E-01  5.0000000000E-01  0.0000000000E+00
          spgroup         216
           symrel      1  0  0   0  1  0   0  0  1       0 -1  1   0 -1  0   1 -1  0
                      -1  0  0  -1  0  1  -1  1  0       0  1 -1   1  0 -1   0  0 -1
                      -1  0  0  -1  1  0  -1  0  1       0 -1  1   1 -1  0   0 -1  0
                       1  0  0   0  0  1   0  1  0       0  1 -1   0  0 -1   1  0 -1
                      -1  0  1  -1  1  0  -1  0  0       0 -1  0   1 -1  0   0 -1  1
                       1  0 -1   0  0 -1   0  1 -1       0  1  0   0  0  1   1  0  0
                       1  0 -1   0  1 -1   0  0 -1       0 -1  0   0 -1  1   1 -1  0
                      -1  0  1  -1  0  0  -1  1  0       0  1  0   1  0  0   0  0  1
                       0  0 -1   0  1 -1   1  0 -1       1 -1  0   0 -1  1   0 -1  0
                       0  0  1   1  0  0   0  1  0      -1  1  0  -1  0  0  -1  0  1
                       0  0  1   0  1  0   1  0  0       1 -1  0   0 -1  0   0 -1  1
                       0  0 -1   1  0 -1   0  1 -1      -1  1  0  -1  0  1  -1  0  0
           timopt          -1
           tolvrs1     1.00000000E-08
           tolvrs2     0.00000000E+00
            typat      1  2
         wfoptalg1        114
         wfoptalg2          0
              wtk        0.00195    0.01563    0.01563    0.01563    0.00781    0.01172
                         0.04688    0.04688    0.04688    0.04688    0.04688    0.02344
                         0.01172    0.04688    0.04688    0.04688    0.02344    0.01172
                         0.04688    0.02344    0.00586    0.04688    0.09375    0.04688
                         0.04688    0.09375    0.04688    0.02344    0.01172
           xangst      0.0000000000E+00  0.0000000000E+00  0.0000000000E+00
                       9.0375000000E-01  9.0375000000E-01  9.0375000000E-01
            xcart      0.0000000000E+00  0.0000000000E+00  0.0000000000E+00
                       1.7078399926E+00  1.7078399926E+00  1.7078399926E+00
             xred      0.0000000000E+00  0.0000000000E+00  0.0000000000E+00
                       2.5000000000E-01  2.5000000000E-01  2.5000000000E-01
            znucl        5.00000    7.00000

 chkinp: Checking input parameters for consistency, jdtset=   1.

 chkinp: Checking input parameters for consistency, jdtset=   2.

== DATASET  1 ==================================================================
-   mpi_nproc: 232, omp_nthreads: -1 (-1 if OMP is not activated)

--- !DatasetInfo
iteration_state: {dtset: 1, }
dimensions: {natom: 2, nkpt: 29, mband: 8, nsppol: 1, nspinor: 1, nspden: 1, mpw: 148, }
cutoff_energies: {ecut:  45.0, pawecutdg:  -1.0, }
electrons: {nelect:   8.00000000E+00, charge:   0.00000000E+00, occopt:   1.00000000E+00, tsmear:   1.00000000E-02, }
meta: {optdriver: 0, ionmov: 0, optcell: 0, iscf: 7, paral_kgb: 1, }
...

 Real(R)+Recip(G) space primitive vectors, cartesian coordinates (Bohr,Bohr^-1):
 R(1)=  0.0000000  3.4156800  3.4156800  G(1)= -0.1463837  0.1463837  0.1463837
 R(2)=  3.4156800  0.0000000  3.4156800  G(2)=  0.1463837 -0.1463837  0.1463837
 R(3)=  3.4156800  3.4156800  0.0000000  G(3)=  0.1463837  0.1463837 -0.1463837
 Unit cell volume ucvol=  7.9700587E+01 bohr^3
 Angles (23,13,12)=  6.00000000E+01  6.00000000E+01  6.00000000E+01 degrees

 getcut: wavevector=  0.0000  0.0000  0.0000  ngfft=  30  30  30
         ecut(hartree)=     45.000   => boxcut(ratio)=   2.05892

--- Pseudopotential description ------------------------------------------------
- pspini: atom type   1  psp file is B.psp8
- pspatm: opening atomic psp file    B.psp8
- B     ONCVPSP-3.2.3.1  r_core=   1.20849   1.20849
-  5.00000   3.00000    170503                znucl, zion, pspdat
    8   11    1    4       600   0.00000      pspcod,pspxc,lmax,lloc,mmax,r2well
    5.99000000000000    2.90000000000000    0.00000000000000   rchrg,fchrg,qchrg
     nproj     2     2
     extension_switch     1
  pspatm : epsatm=    3.38844677
         --- l  ekb(1:nproj) -->
             0    8.382104    1.234201
             1   -3.719492   -0.867526
 pspatm: atomic psp has been read  and splines computed

- pspini: atom type   2  psp file is N.psp8
- pspatm: opening atomic psp file    N.psp8
- N     ONCVPSP-3.2.3.1  r_core=   1.20551   1.35824
-  7.00000   5.00000    170503                znucl, zion, pspdat
    8   11    1    4       600   0.00000      pspcod,pspxc,lmax,lloc,mmax,r2well
    5.99000000000000    4.00000000000000    0.00000000000000   rchrg,fchrg,qchrg
     nproj     2     2
     extension_switch     1
  pspatm : epsatm=    5.20978323
         --- l  ekb(1:nproj) -->
             0    7.494509    0.636305
             1   -4.293905   -1.006988
 pspatm: atomic psp has been read  and splines computed

   6.87858400E+01                                ecore*ucvol(ha*bohr**3)

_setup2: Arith. and geom. avg. npw (full set) are     144.877     144.873

--- !BeginCycle
iteration_state: {dtset: 1, }
solver: {iscf: 7, nstep: 50, nline: 4, wfoptalg: 114, }
tolerances: {tolvrs: 1.00E-08, }
...

     iter   Etot(hartree)      deltaE(h)  residm     vres2
[...]
- timing timab                     27.030   2.9        27.067   2.6           3248      -1.00        1.00       1.00
- fourwf%(pot)                     21.414   2.3        21.433   2.0          18108      -1.00        1.00       1.00
- newkpt(excl. rwwf   )            17.305   1.8        17.308   1.7           -232      -1.00        1.00       1.00
- abinit(2)                        11.826   1.2        12.192   1.2            232      -1.00        0.97       0.97
- fourdp                           11.807   1.2        11.838   1.1          25984      -1.00        1.00       1.00
- invars2                           7.819   0.8         7.820   0.7            464      -1.00        1.00       1.00
- xc:pot/=fourdp                    5.791   0.6         5.823   0.6           2088      -1.00        0.99       0.99
- mkcore                            4.692   0.5         4.692   0.4            928      -1.00        1.00       1.00
- ewald                             4.479   0.5         4.481   0.4            464      -1.00        1.00       1.00
- nonlop(apply)                     3.666   0.4         3.686   0.4          18108      -1.00        0.99       0.99
- stress                            3.304   0.3         3.305   0.3            232      -1.00        1.00       1.00
- ewald2 (+vdw_dftd)                1.634   0.2         1.634   0.2            232      -1.00        1.00       1.00
- forces                            1.577   0.2         1.582   0.2            232      -1.00        1.00       1.00
- prep_bandfft_tabs                 1.477   0.2         1.491   0.1            464      -1.00        0.99       0.99
- kpgsph                            1.126   0.1         1.127   0.1          27608      -1.00        1.00       1.00
- symrhg(no FFT)                    0.912   0.1         0.914   0.1           1624      -1.00        1.00       1.00
- scfcv-scprqt                      0.662   0.1         0.665   0.1           1624      -1.00        1.00       1.00
- vtowfk(contrib)                   0.622   0.1         0.626   0.1           1624      -1.00        0.99       0.99
- getghc-other                      0.495   0.1         0.494   0.0           -232      -1.00        1.00       1.00
- setsym                            0.253   0.0         0.253   0.0            232      -1.00        1.00       1.00
- vtowfk(ssdiag)                    0.136   0.0         0.142   0.0           -232      -1.00        0.96       0.96
- nonlop(forces)                    0.132   0.0         0.132   0.0           2088      -1.00        1.00       1.00
- vtowfk  (1)                       0.095   0.0         0.100   0.0           1624      -1.00        0.95       0.95
- mkffnl                            0.073   0.0         0.073   0.0            696      -1.00        0.99       0.99
- inwffil(excl. calls)              0.027   0.0         0.027   0.0            232      -1.00        0.98       0.98
- others (127)                      0.000   0.0         0.000   0.0             -1      -1.00        0.00       0.00
-<END_TIMER>

- subtotal                        384.343  40.6       402.524  38.4                                  0.95       0.95

 Partitioning of abinit
- abinit                          946.528 100.0      1047.877 100.0            232                   0.90       0.90

- abinit(1)                        44.267   4.7        51.233   4.9            232                   0.86       0.86
- abinit(2)                        11.826   1.2        12.192   1.2            232                   0.97       0.97
- indefo+macroin+invars2m           7.879   0.8         7.881   0.8            232                   1.00       1.00
- abinit(4)                        56.963   6.0        61.787   5.9            232                   0.92       0.92
- abinit(5)                        34.487   3.6        34.552   3.3            232                   1.00       1.00
- driver                          808.100  85.4       898.264  85.7            232                   0.90       0.90
- timana(1)                         0.224   0.0         0.235   0.0            232                   0.95       0.95
- timing timab                     27.030   2.9        27.067   2.6           3248                   1.00       1.00

[...]

 Partitioning of driver
- driver                          808.100  85.4       898.264  85.7            232                   0.90       0.90

- driver(bef. select case)         15.219   1.6        36.549   3.5            464                   0.42       0.42
- (other)                         792.535  83.7       861.349  82.2             -1                   0.92       0.92

[...]

 Partitioning of gstateimg+gstate
- gstateimg                       347.518  36.7       394.153  37.6            232                   0.88       0.88

- gstate(1)                        22.404   2.4        22.554   2.2            464                   0.99       0.99
- gstate(pspini)                  121.730  12.9       122.234  11.7            232                   1.00       1.00
- gstate(init rhor rhog)            1.000   0.1         1.009   0.1            232                   0.99       0.99
- gstate(init history)              0.520   0.1         0.521   0.0            232                   1.00       1.00
- gstate(...scfcv)                 87.373   9.2       126.531  12.1            232                   0.69       0.69
- gstate(prtwf)                   113.177  12.0       119.906  11.4            232                   0.94       0.94
- gstate(clnup1)                    0.701   0.1         0.766   0.1            232                   0.91       0.91

[...]

 Partitioning of scfcv_core
- scfcv_core                       86.419   9.1       125.494  12.0            232                   0.69       0.69

- scfcv_core(1)                     0.833   0.1         0.866   0.1            232                   0.96       0.96
- scfcv_core(iniloop, setv          5.806   0.6         5.832   0.6           1624                   1.00       1.00
- scfcv_core(vtorho(f))            46.892   5.0        70.139   6.7           1624                   0.67       0.67
- scfcv-scprqt                      0.662   0.1         0.665   0.1           1624                   1.00       1.00
- scfcv_core(rhotov)                9.923   1.0         9.928   0.9           1624                   1.00       1.00
- scfcv_core(qui loop)              0.818   0.1         0.819   0.1           1624                   1.00       1.00
- scfcv_core(mix pot)              13.169   1.4        28.665   2.7           1392                   0.46       0.46
- scfcv_core(just after sc          0.359   0.0         0.429   0.0            232                   0.84       0.84
- scfcv_core(afterscfloop)          6.892   0.7         7.017   0.7            232                   0.98       0.98
- scfcv_core(outscfcv)              0.896   0.1         0.964   0.1            232                   0.93       0.93

[...]

 Partitioning of rhotov
- rhotov                            9.885   1.0         9.887   0.9           1624                   1.00       1.00

- rhotov(rhotoxc)                   8.634   0.9         8.636   0.8           1624                   1.00       1.00
- (other)                           0.993   0.1         0.991   0.1             -1                   1.00       1.00

[...]

 Partitioning of vtorho
- vtorho                           46.855   5.0        70.101   6.7           1624                   0.67       0.67

- vtorho(bef. vtowfk)               1.299   0.1         1.315   0.1           1624                   0.99       0.99
- vtowfk                           36.376   3.8        59.494   5.7           1624                   0.61       0.61
- vtorho(aft. kpt loop)             0.905   0.1         0.909   0.1           1624                   1.00       1.00
- vtorho(highest occ. eig)          0.436   0.0         0.437   0.0           1624                   1.00       1.00
- vtorho(mkrho 2)                   2.908   0.3         2.969   0.3           3248                   0.98       0.98

[...]

 Partitioning of vtowfk
- vtowfk                           36.376   3.8        59.494   5.7           1624                   0.61       0.61

- vtowfk(2)                        35.657   3.8        58.766   5.6           -232                   0.61       0.61
- prep_fourwf%vtow                  0.518   0.1         0.519   0.0           1624                   1.00       1.00

[...]

 Partitioning of getghc
- getghc                           25.575   2.7        25.613   2.4          18108                   1.00       1.00

- fourwf%getghc                    21.414   2.3        21.433   2.0          18108                   1.00       1.00
- nonlop%getghc                     3.666   0.4         3.686   0.4          18108                   0.99       0.99
- getghc-other                      0.495   0.1         0.494   0.0           -232                   1.00       1.00

[...]

 Partitioning of fourwf (upwards partitioning)
- fourwf                           21.854   2.3        21.873   2.1          19732                   1.00       1.00

- fourwf%getghc                    21.414   2.3        21.433   2.0          18108                   1.00       1.00
- fourwf%prep_four                  0.440   0.0         0.440   0.0           1624                   1.00       1.00

[...]

 Partitioning of prep_getghc
- prep_getghc                      12.495   1.3        12.550   1.2          10440                   1.00       1.00

- prep_getghc(before if)            0.253   0.0         0.259   0.0          10440                   0.97       0.97
- prep_getghc(alltoall)             1.677   0.2         1.681   0.2          20880                   1.00       1.00
- prep_getghc(getghc - 2 )         10.339   1.1        10.381   1.0          10440                   1.00       1.00

[...]

 Partitioning of prep_fourwf
- prep_fourwf                       0.518   0.1         0.519   0.0           1624                   1.00       1.00

- fourwf%prep_four                  0.440   0.0         0.440   0.0           1624                   1.00       1.00

[...]

 Partitioning of prep_nonlop
- prep_nonlop                       0.620   0.1         0.630   0.1           2320                   0.98       0.98

- nonlop%prep_nonl%forstrn          0.351   0.0         0.359   0.0            232                   0.98       0.98
- (other)                           0.214   0.0         0.216   0.0             -1                   0.99       0.99

[...]

 Partitioning of inwffil
- inwffil                          17.374   1.8        17.378   1.7            232                   1.00       1.00

- inwffil(call newkpt)             17.347   1.8        17.351   1.7            232                   1.00       1.00

[...]

 Partitioning of newkpt
- newkpt                           17.347   1.8        17.351   1.7            232                   1.00       1.00

- newkpt(call wfconv)               0.214   0.0         0.216   0.0            232                   0.99       0.99
- newkpt(after loop   )            17.089   1.8        17.091   1.6            232                   1.00       1.00

[...]

 Partitioning of newvtr
- newvtr                           12.925   1.4        28.376   2.7           1392                   0.46       0.46

- newvtr(call prcref_PMA)           1.281   0.1         1.284   0.1           1392                   1.00       1.00
- newvtr(aft. prcref_PMA)          10.774   1.1        26.211   2.5           1392                   0.41       0.41
- newvtr(mean potential)            0.531   0.1         0.532   0.1           1392                   1.00       1.00

[...]

 Partitioning of  fourdp (upwards partitioning)
- fourdp                           11.807   1.2        11.838   1.1          25984                   1.00       1.00

- fourdp%(other)                   11.807   1.2        11.838   1.1          25984                   1.00       1.00

[...]

 Partitioning of afterscfloop
- afterscfloop                      6.697   0.7         6.805   0.6            232                   0.98       0.98

- afterscfloop(forstr)              6.513   0.7         6.615   0.6            232                   0.98       0.98

[...]

 Partitioning of forstr
- forstr                            6.356   0.7         6.429   0.6            232                   0.99       0.99

- forstr(forstrnps)                 1.193   0.1         1.204   0.1            232                   0.99       0.99
- forstr(forces)                    1.842   0.2         1.904   0.2            232                   0.97       0.97
- forstr(stress)                    3.320   0.4         3.321   0.3            232                   1.00       1.00

[...]

 Partitioning of forstrnps
- forstrnps                         1.170   0.1         1.180   0.1            232                   0.99       0.99

- forstrnps(bef.loop band)          0.396   0.0         0.398   0.0            232                   1.00       1.00
- forstrnps(nonlop+prep_ba          0.394   0.0         0.402   0.0            232                   0.98       0.98
- forstrnps:synchr                  0.298   0.0         0.298   0.0            464                   1.00       1.00

[...]

 Partitioning of outscfcv
- outscfcv                          0.843   0.1         0.908   0.1            232                   0.93       0.93

- outscfcv(preparation)             0.200   0.0         0.210   0.0            232                   0.95       0.95
- outscfcv(calcdenmagsph)           0.488   0.1         0.502   0.0            232                   0.97       0.97

[...]

 Partitioning of lobpcgwf2 core engine
- lobpcgwf2                        35.522   3.8        58.624   5.6           2088                   0.61       0.61

- lobpcg_run                       34.914   3.7        57.995   5.5           2088                   0.60       0.60
- lobpcg_Bortho                     9.899   1.0        24.213   2.3          10440                   0.41       0.41
- lobpcg_RayleighRitz              11.632   1.2        20.332   1.9          10440                   0.57       0.57
- lobpcg_maxResidu                  0.443   0.0         0.446   0.0          18792                   0.99       0.99
- lobpcg_run@getAX_BX              12.670   1.3        12.731   1.2          10440                   1.00       1.00
- lobpcg_RayleighRitz@hegv          9.695   1.0        18.394   1.8          10440                   0.53       0.53

- subtotal                         79.414   8.4       134.279  12.8                                  0.59       0.59

 Partitioning of low-level xgBlock type
- xgBlock_potrf                     8.292   0.9        22.601   2.2          10440                   0.37       0.37

- xgBlock_trsm                      0.838   0.1         0.841   0.1          31320                   1.00       1.00
- xgBlock_gemm                      2.366   0.2         2.378   0.2         114840                   0.99       0.99
- xgBlock_hegvx                     9.453   1.0        18.151   1.7           8352                   0.52       0.52

- subtotal                         12.956   1.4        21.672   2.1                                  0.60       0.60
-
-
- forstrnps:synchr                  0.298   0.0         0.298   0.0            464                   1.00       1.00
- alltoall%back_wf                  0.174   0.0         0.167   0.0          22504                   1.04       1.04
- alltoall%forw_wf                  0.056   0.0         0.051   0.0          20880                   1.08       1.08
- subtotal                          0.527   0.1         0.516   0.0                                  1.02       1.02

 Additional information
- timana(1)                         0.224   0.0         0.235   0.0            232                   0.95       0.95
- total timab                      27.445   2.9        27.483   2.6       45835367                   1.00       1.00
- fourwf                           21.854   2.3        21.873   2.1          19732                   1.00       1.00
- mklocl(2)                         0.182   0.0         0.182   0.0            232                   1.00       1.00
- nonlop(total)                     4.149   0.4         4.177   0.4          20428                   0.99       0.99
- xc:fourdp                         6.613   0.7         6.599   0.6          16704                   1.00       1.00
- read_rho                        125.675  13.3       125.755  12.0            232                   1.00       1.00

 timana : in multi dataset mode, the more detailed analysis is not done.

 Suggested references for the acknowledgment of ABINIT usage.

 Calculation completed.
.Delivered   0 WARNINGs and   0 COMMENTs to log file.