.Version 9.9.2 of ABINIT

 ABINIT is a project of the Universite Catholique de Louvain,
 Corning Inc. and other collaborators, see ~abinit/doc/developers/contributors.txt .
 acknowledgments of the ABINIT effort.

.Starting date : Fri 17 Feb 2023.
- ( at 00h41 )

- input  file    -> run.abi
- output file    -> run.abo
- root for input  files -> indata_gs
- root for output files -> outdata_gs

 DATASET    1 : space group F-4 3 m (#216); Bravais cF (face-center cubic)
     intxc =       0    ionmov =       0      iscf =       7    lmnmax =       6
     lnmax =       6     mgfft =      36  mpssoang =       3    mqgrid =    3001
     natom =       2  nloc_mem =       1    nspden =       1   nspinor =       1
    nsppol =       1      nsym =      24    n1xccc =    2501    ntypat =       2
    occopt =       1   xclevel =       2
-    mband =           8        mffmem =           1         mkmem =           1
       mpw =         423          nfft =       23328          nkpt =          29
  Rough estimation (10% accuracy) of disk space for files :

 DATASET    2 : space group F-4 3 m (#216); Bravais cF (face-center cubic)
     intxc =       0    ionmov =       0      iscf =       7    lmnmax =       6
     lnmax =       6     mgfft =      36  mpssoang =       3    mqgrid =    3001
     natom =       2  nloc_mem =       1    nspden =       1   nspinor =       1
    nsppol =       1      nsym =      24    n1xccc =    2501    ntypat =       2
    occopt =       1   xclevel =       2
-    mband =           5        mffmem =           1         mkmem =           1
       mpw =        1700          nfft =       46656          nkpt =          29
  Rough estimation (10% accuracy) of disk space for files :

------------- Echo of variables that govern the present computation ------------
-
- outvars: echo of selected default values
-   iomode0 =  0 , fftalg0 =312 , wfoptalg0 =  0
-
- outvars: echo of global parameters not present in the input file
-  max_nthreads =    0
-
 -outvars: echo values of preprocessed input variables --------
-          iomode1          1
-          iomode2          0
            acell      8.2203086781E+00  8.2203086781E+00  8.2203086781E+00 Bohr
              amu      1.20110000E+01  2.80855000E+01
        autoparal1          1
        autoparal2          0
           bandpp1          4
           bandpp2          1
     densfor_pred1          6
     densfor_pred2          2
           diemac      1.20000000E+01
             ecut      4.00000000E+01 Hartree
-          fftalg         312
           getden1          0
           getden2         -1
           istwfk        1    0    0    0    1    0    0    0    0    0
                         0    0    0    0    0    0    0    0    0    0
                         1    0    0    0    0    0    0    0    0
              ixc          11
           jdtset        1    2
              kpt      0.00000000E+00  0.00000000E+00  0.00000000E+00
                       1.25000000E-01  0.00000000E+00  0.00000000E+00
                       2.50000000E-01  0.00000000E+00  0.00000000E+00
                       3.75000000E-01  0.00000000E+00  0.00000000E+00
                       5.00000000E-01  0.00000000E+00  0.00000000E+00
                       1.25000000E-01  1.25000000E-01  0.00000000E+00
                       2.50000000E-01  1.25000000E-01  0.00000000E+00
                       3.75000000E-01  1.25000000E-01  0.00000000E+00
                       5.00000000E-01  1.25000000E-01  0.00000000E+00
                      -3.75000000E-01  1.25000000E-01  0.00000000E+00
                      -2.50000000E-01  1.25000000E-01  0.00000000E+00
                      -1.25000000E-01  1.25000000E-01  0.00000000E+00
                       2.50000000E-01  2.50000000E-01  0.00000000E+00
                       3.75000000E-01  2.50000000E-01  0.00000000E+00
                       5.00000000E-01  2.50000000E-01  0.00000000E+00
                      -3.75000000E-01  2.50000000E-01  0.00000000E+00
                      -2.50000000E-01  2.50000000E-01  0.00000000E+00
                       3.75000000E-01  3.75000000E-01  0.00000000E+00
                       5.00000000E-01  3.75000000E-01  0.00000000E+00
                      -3.75000000E-01  3.75000000E-01  0.00000000E+00
                       5.00000000E-01  5.00000000E-01  0.00000000E+00
                       3.75000000E-01  2.50000000E-01  1.25000000E-01
                       5.00000000E-01  2.50000000E-01  1.25000000E-01
                      -3.75000000E-01  2.50000000E-01  1.25000000E-01
                       5.00000000E-01  3.75000000E-01  1.25000000E-01
                      -3.75000000E-01  3.75000000E-01  1.25000000E-01
                      -2.50000000E-01  3.75000000E-01  1.25000000E-01
                      -3.75000000E-01  5.00000000E-01  1.25000000E-01
                      -2.50000000E-01  5.00000000E-01  2.50000000E-01
         kptrlatt        8    0    0      0    8    0      0    0    8
          kptrlen      4.65010881E+01
P           mkmem           1
            natom           2
            nband1          8
            nband2          5
           ndtset           2
            ngfft          36      36      36
             nkpt          29
-          npband1          2
-          npband2          1
-           npfft1          2
-           npfft2          1
-        np_spkpt1         29
-        np_spkpt2          1
            nstep          50
             nsym          24
           ntypat           2
              occ1     2.000000  2.000000  2.000000  2.000000  0.000000  0.000000
                       0.000000  0.000000
              occ2     2.000000  2.000000  2.000000  2.000000  0.000000
        optdriver1          0
        optdriver2          6
           ortalg1         -2
           ortalg2          2
        paral_kgb1          1
        paral_kgb2          0
            rprim      0.0000000000E+00  5.0000000000E-01  5.0000000000E-01
                       5.0000000000E-01  0.0000000000E+00  5.0000000000E-01
                       5.0000000000E-01  5.0000000000E-01  0.0000000000E+00
          spgroup         216
           symrel      1  0  0   0  1  0   0  0  1       0 -1  1   0 -1  0   1 -1  0
                      -1  0  0  -1  0  1  -1  1  0       0  1 -1   1  0 -1   0  0 -1
                      -1  0  0  -1  1  0  -1  0  1       0 -1  1   1 -1  0   0 -1  0
                       1  0  0   0  0  1   0  1  0       0  1 -1   0  0 -1   1  0 -1
                      -1  0  1  -1  1  0  -1  0  0       0 -1  0   1 -1  0   0 -1  1
                       1  0 -1   0  0 -1   0  1 -1       0  1  0   0  0  1   1  0  0
                       1  0 -1   0  1 -1   0  0 -1       0 -1  0   0 -1  1   1 -1  0
                      -1  0  1  -1  0  0  -1  1  0       0  1  0   1  0  0   0  0  1
                       0  0 -1   0  1 -1   1  0 -1       1 -1  0   0 -1  1   0 -1  0
                       0  0  1   1  0  0   0  1  0      -1  1  0  -1  0  0  -1  0  1
                       0  0  1   0  1  0   1  0  0       1 -1  0   0 -1  0   0 -1  1
                       0  0 -1   1  0 -1   0  1 -1      -1  1  0  -1  0  1  -1  0  0
           timopt          -1
           tolvrs1     1.00000000E-08
           tolvrs2     0.00000000E+00
            typat      1  2
         wfoptalg1        114
         wfoptalg2          0
              wtk        0.00195    0.01563    0.01563    0.01563    0.00781    0.01172
                         0.04688    0.04688    0.04688    0.04688    0.04688    0.02344
                         0.01172    0.04688    0.04688    0.04688    0.02344    0.01172
                         0.04688    0.02344    0.00586    0.04688    0.09375    0.04688
                         0.04688    0.09375    0.04688    0.02344    0.01172
           xangst      0.0000000000E+00  0.0000000000E+00  0.0000000000E+00
                       1.0875000000E+00  1.0875000000E+00  1.0875000000E+00
            xcart      0.0000000000E+00  0.0000000000E+00  0.0000000000E+00
                       2.0550771695E+00  2.0550771695E+00  2.0550771695E+00
             xred      0.0000000000E+00  0.0000000000E+00  0.0000000000E+00
                       2.5000000000E-01  2.5000000000E-01  2.5000000000E-01
            znucl        6.00000   14.00000

 chkinp: Checking input parameters for consistency, jdtset=   1.

 chkinp: Checking input parameters for consistency, jdtset=   2.

== DATASET  1 ==================================================================
-   mpi_nproc: 116, omp_nthreads: -1 (-1 if OMP is not activated)

--- !DatasetInfo
iteration_state: {dtset: 1, }
dimensions: {natom: 2, nkpt: 29, mband: 8, nsppol: 1, nspinor: 1, nspden: 1, mpw: 423, }
cutoff_energies: {ecut:  40.0, pawecutdg:  -1.0, }
electrons: {nelect:   8.00000000E+00, charge:   0.00000000E+00, occopt:   1.00000000E+00, tsmear:   1.00000000E-02, }
meta: {optdriver: 0, ionmov: 0, optcell: 0, iscf: 7, paral_kgb: 1, }
...

 Real(R)+Recip(G) space primitive vectors, cartesian coordinates (Bohr,Bohr^-1):
 R(1)=  0.0000000  4.1101543  4.1101543  G(1)= -0.1216499  0.1216499  0.1216499
 R(2)=  4.1101543  0.0000000  4.1101543  G(2)=  0.1216499 -0.1216499  0.1216499
 R(3)=  4.1101543  4.1101543  0.0000000  G(3)=  0.1216499  0.1216499 -0.1216499
 Unit cell volume ucvol=  1.3886871E+02 bohr^3
 Angles (23,13,12)=  6.00000000E+01  6.00000000E+01  6.00000000E+01 degrees

 getcut: wavevector=  0.0000  0.0000  0.0000  ngfft=  36  36  36
         ecut(hartree)=     40.000   => boxcut(ratio)=   2.17538

--- Pseudopotential description ------------------------------------------------
- pspini: atom type   1  psp file is C.psp8
- pspatm: opening atomic psp file    C.psp8
- C     ONCVPSP-3.2.3.1  r_core=   1.20440   1.26326
-  6.00000   4.00000    170503                znucl, zion, pspdat
    8   11    1    4       600   0.00000      pspcod,pspxc,lmax,lloc,mmax,r2well
    5.99000000000000    4.00000000000000    0.00000000000000   rchrg,fchrg,qchrg
     nproj     2     2
     extension_switch     1
  pspatm : epsatm=    4.31347020
         --- l  ekb(1:nproj) -->
             0    6.481548    0.385504
             1   -4.199961   -0.877517
 pspatm: atomic psp has been read  and splines computed

- pspini: atom type   2  psp file is Si.psp8
- pspatm: opening atomic psp file    Si.psp8
- Si    ONCVPSP-3.2.3.1  r_core=   1.60303   1.72197   1.91712
- 14.00000   4.00000    170510                znucl, zion, pspdat
    8   11    2    4       600   0.00000      pspcod,pspxc,lmax,lloc,mmax,r2well
    5.99000000000000    4.00000000000000    0.00000000000000   rchrg,fchrg,qchrg
     nproj     2     2     2
     extension_switch     1
  pspatm : epsatm=    9.34321699
         --- l  ekb(1:nproj) -->
             0    5.168965    0.829883
             1    2.571282    0.578307
             2   -2.427311   -0.488097
 pspatm: atomic psp has been read  and splines computed

   1.09253498E+02                                ecore*ucvol(ha*bohr**3)

_setup2: Arith. and geom. avg. npw (full set) are     417.783     417.780

--- !BeginCycle
iteration_state: {dtset: 1, }
solver: {iscf: 7, nstep: 50, nline: 4, wfoptalg: 114, }
tolerances: {tolvrs: 1.00E-08, }
...

[...]
- cpu_time =         759.2, wall_time =         775.1
-
-                                                                        (-1=no count)
- ugb_from_diago                  261.134  34.4       261.196  33.7            116      -1.00        1.00       1.00
- pspini                           76.852  10.1        76.918   9.9            232      -1.00        1.00       1.00
- fourwf%(pot)                     60.931   8.0        60.955   7.9          18011      -1.00        1.00       1.00
- timing timab                     13.512   1.8        13.556   1.7           1624      -1.00        1.00       1.00
- fourdp                           13.375   1.8        13.395   1.7          14500      -1.00        1.00       1.00
- nonlop(apply)                     9.552   1.3         9.565   1.2          18011      -1.00        1.00       1.00
- abinit(2)                         6.087   0.8         6.251   0.8            116      -1.00        0.97       0.97
- xc:pot/=fourdp                    5.562   0.7         5.577   0.7           1160      -1.00        1.00       1.00
- invars2                           3.911   0.5         3.912   0.5            232      -1.00        1.00       1.00
- mkcore                            2.311   0.3         2.312   0.3            464      -1.00        1.00       1.00
- ewald                             2.299   0.3         2.300   0.3            232      -1.00        1.00       1.00
- stress                            1.707   0.2         1.707   0.2            116      -1.00        1.00       1.00
- newkpt(excl. rwwf   )             1.440   0.2         1.440   0.2           -116      -1.00        1.00       1.00
- symrhg(no FFT)                    0.996   0.1         0.997   0.1            928      -1.00        1.00       1.00
- vtowfk(contrib)                   0.919   0.1         0.919   0.1            928      -1.00        1.00       1.00
- scfcv-scprqt                      0.891   0.1         0.902   0.1            928      -1.00        0.99       0.99
- forces                            0.875   0.1         0.878   0.1            116      -1.00        1.00       1.00
- ewald2 (+vdw_dftd)                0.828   0.1         0.828   0.1            116      -1.00        1.00       1.00
- kpgsph                            0.647   0.1         0.648   0.1          13804      -1.00        1.00       1.00
- prep_bandfft_tabs                 0.535   0.1         0.542   0.1            232      -1.00        0.99       0.99
- getghc-other                      0.424   0.1         0.410   0.1           -116      -1.00        1.03       1.03
- nonlop(forces)                    0.232   0.0         0.233   0.0           1160      -1.00        1.00       1.00
- setsym                            0.200   0.0         0.200   0.0            116      -1.00        1.00       1.00
- mkffnl                            0.068   0.0         0.069   0.0            348      -1.00        0.98       0.98
- vtowfk(ssdiag)                    0.057   0.0         0.059   0.0           -116      -1.00        0.96       0.96
- vtowfk  (1)                       0.043   0.0         0.045   0.0            928      -1.00        0.94       0.94
- inwffil(excl. calls)              0.006   0.0         0.006   0.0            116      -1.00        0.98       0.98
- others (127)                      0.000   0.0         0.000   0.0             -1      -1.00        0.00       0.00
-<END_TIMER>

- subtotal                        468.118  61.7       468.563  60.4                                  1.00       1.00

 Partitioning of abinit
- abinit                          759.247 100.0       775.131 100.0            116                   0.98       0.98

- abinit(1)                        19.260   2.5        21.312   2.7            116                   0.90       0.90
- abinit(2)                         6.087   0.8         6.251   0.8            116                   0.97       0.97
- indefo+macroin+invars2m           3.942   0.5         3.943   0.5            116                   1.00       1.00
- abinit(4)                        26.395   3.5        28.335   3.7            116                   0.93       0.93
- abinit(5)                         7.665   1.0         7.692   1.0            116                   1.00       1.00
- driver                          704.700  92.8       716.787  92.5            116                   0.98       0.98
- timing timab                     13.512   1.8        13.556   1.7           1624                   1.00       1.00

[...]

 Partitioning of driver
- driver                          704.700  92.8       716.787  92.5            116                   0.98       0.98

- driver(bef. select case)          1.602   0.2         1.640   0.2            232                   0.98       0.98
- (other)                         702.863  92.6       714.894  92.2             -1                   0.98       0.98

[...]

 Partitioning of gstateimg+gstate
- gstateimg                       181.679  23.9       189.739  24.5            116                   0.96       0.96

- gstateimg(init)                   0.198   0.0         0.206   0.0            116                   0.96       0.96
- gstate(1)                         3.369   0.4         3.420   0.4            232                   0.99       0.99
- gstate(pspini)                   76.866  10.1        76.933   9.9            116                   1.00       1.00
- gstate(init rhor rhog)            0.631   0.1         0.633   0.1            116                   1.00       1.00
- gstate(...scfcv)                 58.357   7.7        58.711   7.6            116                   0.99       0.99
- gstate(prtwf)                    41.414   5.5        48.948   6.3            116                   0.85       0.85
- gstate(clnup1)                    0.379   0.0         0.415   0.1            116                   0.91       0.91

[...]

 Partitioning of scfcv_core
- scfcv_core                       57.880   7.6        58.175   7.5            116                   0.99       0.99

- scfcv_core(1)                     0.409   0.1         0.422   0.1            116                   0.97       0.97
- scfcv_core(iniloop, setv          3.680   0.5         3.688   0.5            928                   1.00       1.00
- scfcv_core(vtorho(f))            33.078   4.4        33.170   4.3            928                   1.00       1.00
- scfcv-scprqt                      0.891   0.1         0.902   0.1            928                   0.99       0.99
- scfcv_core(rhotov)               11.386   1.5        11.390   1.5            928                   1.00       1.00
- scfcv_core(qui loop)              0.419   0.1         0.420   0.1            928                   1.00       1.00
- scfcv_core(mix pot)               3.466   0.5         3.526   0.5            812                   0.98       0.98
- scfcv_core(just after sc          0.178   0.0         0.198   0.0            116                   0.90       0.90
- scfcv_core(afterscfloop)          3.637   0.5         3.689   0.5            116                   0.99       0.99
- scfcv_core(outscfcv)              0.638   0.1         0.672   0.1            116                   0.95       0.95

[...]

 Partitioning of rhotov
- rhotov                           11.360   1.5        11.363   1.5            928                   1.00       1.00

- rhotov(rhotoxc)                   9.880   1.3         9.882   1.3            928                   1.00       1.00
- rhotov(other)                     0.302   0.0         0.303   0.0            928                   1.00       1.00
- (other)                           1.113   0.1         1.113   0.1             -1                   1.00       1.00

[...]

 Partitioning of vtorho
- vtorho                           33.055   4.4        33.146   4.3            928                   1.00       1.00

- vtorho(bef. spin loop)            0.165   0.0         0.169   0.0            928                   0.97       0.97
- vtorho(bef. vtowfk)               0.527   0.1         0.536   0.1            928                   0.98       0.98
- vtowfk                           25.317   3.3        25.352   3.3            928                   1.00       1.00
- vtorho(aft. kpt loop)             1.086   0.1         1.088   0.1            928                   1.00       1.00
- vtorho(highest occ. eig)          0.169   0.0         0.169   0.0            928                   1.00       1.00
- vtorho(mkrho 2)                   2.866   0.4         2.890   0.4           1856                   0.99       0.99

[...]

 Partitioning of vtowfk
- vtowfk                           25.317   3.3        25.352   3.3            928                   1.00       1.00

- vtowfk(2)                        24.355   3.2        24.387   3.1           -116                   1.00       1.00
- prep_fourwf%vtow                  0.883   0.1         0.883   0.1            928                   1.00       1.00

[...]

 Partitioning of getghc
- getghc                           70.907   9.3        70.929   9.2          18011                   1.00       1.00

- fourwf%getghc                    60.931   8.0        60.955   7.9          18011                   1.00       1.00
- nonlop%getghc                     9.552   1.3         9.565   1.2          18011                   1.00       1.00
- getghc-other                      0.424   0.1         0.410   0.1           -116                   1.03       1.03

[...]

 Partitioning of fourwf (upwards partitioning)
- fourwf                           61.770   8.1        61.794   8.0          19867                   1.00       1.00

- fourwf%getghc                    60.931   8.0        60.955   7.9          18011                   1.00       1.00
- fourwf%prep_four                  0.839   0.1         0.839   0.1           1856                   1.00       1.00

[...]

 Partitioning of prep_getghc
- prep_getghc                      18.770   2.5        18.785   2.4           5800                   1.00       1.00

- prep_getghc(before if)            0.260   0.0         0.265   0.0           5800                   0.98       0.98
- prep_getghc(alltoall)             0.766   0.1         0.767   0.1          11600                   1.00       1.00
- prep_getghc(getghc - 2 )         17.557   2.3        17.569   2.3           5800                   1.00       1.00

[...]

 Partitioning of prep_fourwf
- prep_fourwf                       0.883   0.1         0.883   0.1            928                   1.00       1.00

- fourwf%prep_four                  0.839   0.1         0.839   0.1           1856                   1.00       1.00

[...]

 Partitioning of prep_nonlop
- prep_nonlop                       0.628   0.1         0.629   0.1           1276                   1.00       1.00

- nonlop%prep_nonl%forstrn          0.315   0.0         0.316   0.0            116                   1.00       1.00
- (other)                           0.265   0.0         0.265   0.0             -1                   1.00       1.00

[...]

 Partitioning of inwffil
- inwffil                           1.460   0.2         1.460   0.2            116                   1.00       1.00

- inwffil(call newkpt)              1.454   0.2         1.454   0.2            116                   1.00       1.00

[...]

 Partitioning of newkpt
- newkpt                            1.454   0.2         1.454   0.2            116                   1.00       1.00

- newkpt(after loop   )             1.409   0.2         1.409   0.2            116                   1.00       1.00

[...]

 Partitioning of newvtr
- newvtr                            3.356   0.4         3.400   0.4            812                   0.99       0.99

- newvtr(call prcref_PMA)           1.749   0.2         1.751   0.2            812                   1.00       1.00
- newvtr(aft. prcref_PMA)           1.224   0.2         1.259   0.2            812                   0.97       0.97

[...]

 Partitioning of  fourdp (upwards partitioning)
- fourdp                           13.375   1.8        13.395   1.7          14500                   1.00       1.00

- fourdp%(other)                   13.375   1.8        13.395   1.7          14500                   1.00       1.00

[...]

 Partitioning of afterscfloop
- afterscfloop                      3.500   0.5         3.539   0.5            116                   0.99       0.99

- afterscfloop(forstr)              3.412   0.4         3.448   0.4            116                   0.99       0.99

[...]

 Partitioning of forstr
- forstr                            3.320   0.4         3.353   0.4            116                   0.99       0.99

- forstr(forstrnps)                 0.613   0.1         0.616   0.1            116                   1.00       1.00
- forstr(forces)                    0.992   0.1         1.021   0.1            116                   0.97       0.97
- forstr(stress)                    1.714   0.2         1.715   0.2            116                   1.00       1.00

[...]

 Partitioning of forstrnps
- forstrnps                         0.593   0.1         0.595   0.1            116                   1.00       1.00

- forstrnps(bef.loop band)          0.174   0.0         0.176   0.0            116                   0.99       0.99
- forstrnps(nonlop+prep_ba          0.329   0.0         0.330   0.0            116                   1.00       1.00

[...]

 Partitioning of outscfcv
- outscfcv                          0.601   0.1         0.635   0.1            116                   0.95       0.95

- outscfcv(calcdenmagsph)           0.369   0.0         0.378   0.0            116                   0.98       0.98

[...]

 Partitioning of lobpcgwf2 core engine
- lobpcgwf2                        24.298   3.2        24.328   3.1           1160                   1.00       1.00

- lobpcg_init                       0.157   0.0         0.160   0.0           1160                   0.99       0.99
- lobpcg_run                       23.732   3.1        23.755   3.1           1160                   1.00       1.00
- lobpcg_Bortho                     1.866   0.2         1.867   0.2           5800                   1.00       1.00
- lobpcg_RayleighRitz               2.682   0.4         2.685   0.3           5800                   1.00       1.00
- lobpcg_run@getAX_BX              18.870   2.5        18.887   2.4           5800                   1.00       1.00
- lobpcg_RayleighRitz@hegv          0.993   0.1         0.994   0.1           5800                   1.00       1.00

- subtotal                         48.455   6.4        48.505   6.3                                  1.00       1.00

 Partitioning of low-level xgBlock type
- xgBlock_potrf                     0.088   0.0         0.088   0.0           5800                   1.00       1.00

- xgBlock_trsm                      1.191   0.2         1.194   0.2          17400                   1.00       1.00
- xgBlock_gemm                      1.987   0.3         1.997   0.3          63800                   1.00       1.00
- xgBlock_hegvx                     0.909   0.1         0.913   0.1           4640                   1.00       1.00

- subtotal                          4.295   0.6         4.315   0.6                                  1.00       1.00
-
-
- forstrnps:synchr                  0.049   0.0         0.049   0.0            232                   1.00       1.00
- alltoall%back_wf                  0.142   0.0         0.139   0.0          25056                   1.03       1.03
- alltoall%forw_wf                  0.079   0.0         0.073   0.0          23200                   1.07       1.07
- subtotal                          0.270   0.0         0.261   0.0                                  1.03       1.03

 Additional information
- timana(1)                         0.104   0.0         0.107   0.0            116                   0.96       0.96
- total timab                      13.771   1.8        13.815   1.8       23003492                   1.00       1.00
- fourwf                           61.770   8.1        61.794   8.0          19867                   1.00       1.00
- mklocl(2)                         0.112   0.0         0.112   0.0            116                   1.00       1.00
- nonlop(total)                    10.100   1.3        10.114   1.3          19287                   1.00       1.00
- xc:fourdp                         7.733   1.0         7.723   1.0           9280                   1.00       1.00
- read_rho                         81.393  10.7        81.451  10.5            116                   1.00       1.00

 timana : in multi dataset mode, the more detailed analysis is not done.

 Suggested references for the acknowledgment of ABINIT usage.

 Calculation completed.
.Delivered   0 WARNINGs and   0 COMMENTs to log file.