.Version 9.9.2 of ABINIT

 ABINIT is a project of the Universite Catholique de Louvain,
 Corning Inc. and other collaborators, see ~abinit/doc/developers/contributors.txt .
 acknowledgments of the ABINIT effort.

.Starting date : Thu 16 Feb 2023.
- ( at 23h09 )

- input  file    -> run.abi
- output file    -> run.abo
- root for input  files -> indata_gs
- root for output files -> outdata_gs

 DATASET    1 : space group Fd -3 m (#227); Bravais cF (face-center cubic)
     intxc =       0    ionmov =       0      iscf =       7    lmnmax =       4
     lnmax =       4     mgfft =      30  mpssoang =       2    mqgrid =    3001
     natom =       2  nloc_mem =       1    nspden =       1   nspinor =       1
    nsppol =       1      nsym =      48    n1xccc =    2501    ntypat =       1
    occopt =       1   xclevel =       2
-    mband =           8        mffmem =           1         mkmem =           1
       mpw =         235          nfft =       13500          nkpt =          29
  Rough estimation (10% accuracy) of disk space for files :

 DATASET    2 : space group Fd -3 m (#227); Bravais cF (face-center cubic)
     intxc =       0    ionmov =       0      iscf =       7    lmnmax =       4
     lnmax =       4     mgfft =      30  mpssoang =       2    mqgrid =    3001
     natom =       2  nloc_mem =       1    nspden =       1   nspinor =       1
    nsppol =       1      nsym =      48    n1xccc =    2501    ntypat =       1
    occopt =       1   xclevel =       2
-    mband =           5        mffmem =           1         mkmem =           1
       mpw =         941          nfft =       27000          nkpt =          29
  Rough estimation (10% accuracy) of disk space for files :

------------- Echo of variables that govern the present computation ------------
-
- outvars: echo of selected default values
-   iomode0 =  0 , fftalg0 =312 , wfoptalg0 =  0
-
- outvars: echo of global parameters not present in the input file
-  max_nthreads =    0
-
 -outvars: echo values of preprocessed input variables --------
-          iomode1          1
-          iomode2          0
            acell      6.7406531160E+00  6.7406531160E+00  6.7406531160E+00 Bohr
              amu      1.20110000E+01
        autoparal1          1
        autoparal2          0
           bandpp1          4
           bandpp2          1
     densfor_pred1          6
     densfor_pred2          2
           diemac      1.20000000E+01
             ecut      4.00000000E+01 Hartree
-          fftalg         312
           getden1          0
           getden2         -1
           istwfk        1    0    0    0    1    0    0    0    0    0
                         0    0    0    0    0    0    0    0    0    0
                         1    0    0    0    0    0    0    0    0
              ixc          11
           jdtset        1    2
              kpt      0.00000000E+00  0.00000000E+00  0.00000000E+00
                       1.25000000E-01  0.00000000E+00  0.00000000E+00
                       2.50000000E-01  0.00000000E+00  0.00000000E+00
                       3.75000000E-01  0.00000000E+00  0.00000000E+00
                       5.00000000E-01  0.00000000E+00  0.00000000E+00
                       1.25000000E-01  1.25000000E-01  0.00000000E+00
                       2.50000000E-01  1.25000000E-01  0.00000000E+00
                       3.75000000E-01  1.25000000E-01  0.00000000E+00
                       5.00000000E-01  1.25000000E-01  0.00000000E+00
                      -3.75000000E-01  1.25000000E-01  0.00000000E+00
                      -2.50000000E-01  1.25000000E-01  0.00000000E+00
                      -1.25000000E-01  1.25000000E-01  0.00000000E+00
                       2.50000000E-01  2.50000000E-01  0.00000000E+00
                       3.75000000E-01  2.50000000E-01  0.00000000E+00
                       5.00000000E-01  2.50000000E-01  0.00000000E+00
                      -3.75000000E-01  2.50000000E-01  0.00000000E+00
                      -2.50000000E-01  2.50000000E-01  0.00000000E+00
                       3.75000000E-01  3.75000000E-01  0.00000000E+00
                       5.00000000E-01  3.75000000E-01  0.00000000E+00
                      -3.75000000E-01  3.75000000E-01  0.00000000E+00
                       5.00000000E-01  5.00000000E-01  0.00000000E+00
                       3.75000000E-01  2.50000000E-01  1.25000000E-01
                       5.00000000E-01  2.50000000E-01  1.25000000E-01
                      -3.75000000E-01  2.50000000E-01  1.25000000E-01
                       5.00000000E-01  3.75000000E-01  1.25000000E-01
                      -3.75000000E-01  3.75000000E-01  1.25000000E-01
                      -2.50000000E-01  3.75000000E-01  1.25000000E-01
                      -3.75000000E-01  5.00000000E-01  1.25000000E-01
                      -2.50000000E-01  5.00000000E-01  2.50000000E-01
         kptrlatt        8    0    0      0    8    0      0    0    8
          kptrlen      3.81308922E+01
P           mkmem           1
            natom           2
            nband1          8
            nband2          5
           ndtset           2
            ngfft          30      30      30
             nkpt          29
-          npband1          2
-          npband2          1
-           npfft1          2
-           npfft2          1
-        np_spkpt1         29
-        np_spkpt2          1
            nstep          50
             nsym          48
           ntypat           1
              occ1     2.000000  2.000000  2.000000  2.000000  0.000000  0.000000
                       0.000000  0.000000
              occ2     2.000000  2.000000  2.000000  2.000000  0.000000
        optdriver1          0
        optdriver2          6
           ortalg1         -2
           ortalg2          2
        paral_kgb1          1
        paral_kgb2          0
            rprim      0.0000000000E+00  5.0000000000E-01  5.0000000000E-01
                       5.0000000000E-01  0.0000000000E+00  5.0000000000E-01
                       5.0000000000E-01  5.0000000000E-01  0.0000000000E+00
          spgroup         227
           symrel      1  0  0   0  1  0   0  0  1      -1  0  0   0 -1  0   0  0 -1
                       0 -1  1   0 -1  0   1 -1  0       0  1 -1   0  1  0  -1  1  0
                      -1  0  0  -1  0  1  -1  1  0       1  0  0   1  0 -1   1 -1  0
                       0  1 -1   1  0 -1   0  0 -1       0 -1  1  -1  0  1   0  0  1
                      -1  0  0  -1  1  0  -1  0  1       1  0  0   1 -1  0   1  0 -1
                       0 -1  1   1 -1  0   0 -1  0       0  1 -1  -1  1  0   0  1  0
                       1  0  0   0  0  1   0  1  0      -1  0  0   0  0 -1   0 -1  0
                       0  1 -1   0  0 -1   1  0 -1       0 -1  1   0  0  1  -1  0  1
                      -1  0  1  -1  1  0  -1  0  0       1  0 -1   1 -1  0   1  0  0
                       0 -1  0   1 -1  0   0 -1  1       0  1  0  -1  1  0   0  1 -1
                       1  0 -1   0  0 -1   0  1 -1      -1  0  1   0  0  1   0 -1  1
                       0  1  0   0  0  1   1  0  0       0 -1  0   0  0 -1  -1  0  0
                       1  0 -1   0  1 -1   0  0 -1      -1  0  1   0 -1  1   0  0  1
                       0 -1  0   0 -1  1   1 -1  0       0  1  0   0  1 -1  -1  1  0
                      -1  0  1  -1  0  0  -1  1  0       1  0 -1   1  0  0   1 -1  0
                       0  1  0   1  0  0   0  0  1       0 -1  0  -1  0  0   0  0 -1
                       0  0 -1   0  1 -1   1  0 -1       0  0  1   0 -1  1  -1  0  1
                       1 -1  0   0 -1  1   0 -1  0      -1  1  0   0  1 -1   0  1  0
                       0  0  1   1  0  0   0  1  0       0  0 -1  -1  0  0   0 -1  0
                      -1  1  0  -1  0  0  -1  0  1       1 -1  0   1  0  0   1  0 -1
                       0  0  1   0  1  0   1  0  0       0  0 -1   0 -1  0  -1  0  0
                       1 -1  0   0 -1  0   0 -1  1      -1  1  0   0  1  0   0  1 -1
                       0  0 -1   1  0 -1   0  1 -1       0  0  1  -1  0  1   0 -1  1
                      -1  1  0  -1  0  1  -1  0  0       1 -1  0   1  0 -1   1  0  0
           timopt          -1
            tnons      0.0000000  0.0000000  0.0000000     0.2500000  0.2500000  0.2500000
                       0.0000000  0.0000000  0.0000000     0.2500000  0.2500000  0.2500000
                       0.0000000  0.0000000  0.0000000     0.2500000  0.2500000  0.2500000
                       0.0000000  0.0000000  0.0000000     0.2500000  0.2500000  0.2500000
                       0.0000000  0.0000000  0.0000000     0.2500000  0.2500000  0.2500000
                       0.0000000  0.0000000  0.0000000     0.2500000  0.2500000  0.2500000
                       0.0000000  0.0000000  0.0000000     0.2500000  0.2500000  0.2500000
                       0.0000000  0.0000000  0.0000000     0.2500000  0.2500000  0.2500000
                       0.0000000  0.0000000  0.0000000     0.2500000  0.2500000  0.2500000
                       0.0000000  0.0000000  0.0000000     0.2500000  0.2500000  0.2500000
                       0.0000000  0.0000000  0.0000000     0.2500000  0.2500000  0.2500000
                       0.0000000  0.0000000  0.0000000     0.2500000  0.2500000  0.2500000
                       0.0000000  0.0000000  0.0000000     0.2500000  0.2500000  0.2500000
                       0.0000000  0.0000000  0.0000000     0.2500000  0.2500000  0.2500000
                       0.0000000  0.0000000  0.0000000     0.2500000  0.2500000  0.2500000
                       0.0000000  0.0000000  0.0000000     0.2500000  0.2500000  0.2500000
                       0.0000000  0.0000000  0.0000000     0.2500000  0.2500000  0.2500000
                       0.0000000  0.0000000  0.0000000     0.2500000  0.2500000  0.2500000
                       0.0000000  0.0000000  0.0000000     0.2500000  0.2500000  0.2500000
                       0.0000000  0.0000000  0.0000000     0.2500000  0.2500000  0.2500000
                       0.0000000  0.0000000  0.0000000     0.2500000  0.2500000  0.2500000
                       0.0000000  0.0000000  0.0000000     0.2500000  0.2500000  0.2500000
                       0.0000000  0.0000000  0.0000000     0.2500000  0.2500000  0.2500000
                       0.0000000  0.0000000  0.0000000     0.2500000  0.2500000  0.2500000
           tolvrs1     1.00000000E-08
           tolvrs2     0.00000000E+00
            typat      1  1
         wfoptalg1        114
         wfoptalg2          0
              wtk        0.00195    0.01563    0.01563    0.01563    0.00781    0.01172
                         0.04688    0.04688    0.04688    0.04688    0.04688    0.02344
                         0.01172    0.04688    0.04688    0.04688    0.02344    0.01172
                         0.04688    0.02344    0.00586    0.04688    0.09375    0.04688
                         0.04688    0.09375    0.04688    0.02344    0.01172
           xangst      0.0000000000E+00  0.0000000000E+00  0.0000000000E+00
                       8.9175000000E-01  8.9175000000E-01  8.9175000000E-01
[...]
- invars2                           5.196   1.5         5.196   1.3            232      -1.00        1.00       1.00
- xc:pot/=fourdp                    2.717   0.8         2.734   0.7            928      -1.00        0.99       0.99
- mkcore                            2.418   0.7         2.418   0.6            464      -1.00        1.00       1.00
- ewald                             2.288   0.7         2.290   0.6            232      -1.00        1.00       1.00
- nonlop(apply)                     1.873   0.5         1.881   0.5          11396      -1.00        1.00       1.00
- stress                            1.662   0.5         1.663   0.4            116      -1.00        1.00       1.00
- ewald2 (+vdw_dftd)                0.829   0.2         0.830   0.2            116      -1.00        1.00       1.00
- forces                            0.797   0.2         0.801   0.2            116      -1.00        1.00       1.00
- kpgsph                            0.598   0.2         0.599   0.1          13804      -1.00        1.00       1.00
- prep_bandfft_tabs                 0.573   0.2         0.578   0.1            232      -1.00        0.99       0.99
- vtowfk(contrib)                   0.395   0.1         0.396   0.1            696      -1.00        1.00       1.00
- symrhg(no FFT)                    0.378   0.1         0.379   0.1            696      -1.00        1.00       1.00
- newkpt(excl. rwwf   )             0.377   0.1         0.378   0.1           -116      -1.00        1.00       1.00
- scfcv-scprqt                      0.365   0.1         0.369   0.1            696      -1.00        0.99       0.99
- getghc-other                      0.256   0.1         0.252   0.1           -116      -1.00        1.02       1.02
- setsym                            0.229   0.1         0.229   0.1            116      -1.00        1.00       1.00
- nonlop(forces)                    0.070   0.0         0.071   0.0            928      -1.00        1.00       1.00
- vtowfk(ssdiag)                    0.060   0.0         0.062   0.0           -116      -1.00        0.96       0.96
- vtowfk  (1)                       0.044   0.0         0.046   0.0            696      -1.00        0.95       0.95
- mkffnl                            0.039   0.0         0.040   0.0            348      -1.00        0.96       0.96
- inwffil(excl. calls)              0.015   0.0         0.016   0.0            116      -1.00        0.99       0.99
- others (127)                      0.000   0.0         0.000   0.0             -1      -1.00        0.00       0.00
-<END_TIMER>

- subtotal                        151.853  43.2       160.592  40.0                                  0.95       0.95

 Partitioning of abinit
- abinit                          351.403 100.0       401.158 100.0            116                   0.88       0.88

- abinit(1)                        19.342   5.5        23.312   5.8            116                   0.83       0.83
- abinit(2)                         7.454   2.1         7.596   1.9            116                   0.98       0.98
- indefo+macroin+invars2m           5.208   1.5         5.209   1.3            116                   1.00       1.00
- abinit(4)                        29.380   8.4        31.377   7.8            116                   0.94       0.94
- abinit(5)                        16.725   4.8        16.757   4.2            116                   1.00       1.00
- driver                          284.999  81.1       329.045  82.0            116                   0.87       0.87
- timana(1)                         0.106   0.0         0.110   0.0            116                   0.97       0.97
- timing timab                     13.309   3.8        13.311   3.3           1624                   1.00       1.00

[...]

 Partitioning of driver
- driver                          284.999  81.1       329.045  82.0            116                   0.87       0.87

- driver(bef. loop dtset)           0.085   0.0         0.091   0.0            116                   0.94       0.94
- driver(bef. select case)          7.258   2.1        17.850   4.4            232                   0.41       0.41
- (other)                         277.566  79.0       311.009  77.5             -1                   0.89       0.89

[...]

 Partitioning of gstateimg+gstate
- gstateimg                       118.337  33.7       140.141  34.9            116                   0.84       0.84

- gstate(1)                         2.552   0.7         2.629   0.7            232                   0.97       0.97
- gstate(pspini)                   29.827   8.5        29.981   7.5            116                   0.99       0.99
- gstate(init rhor rhog)            0.505   0.1         0.509   0.1            116                   0.99       0.99
- gstate(init history)              0.110   0.0         0.110   0.0            116                   1.00       1.00
- gstate(...scfcv)                 42.973  12.2        61.603  15.4            116                   0.70       0.70
- gstate(prtwf)                    41.643  11.9        44.549  11.1            116                   0.93       0.93
- gstate(clnup1)                    0.386   0.1         0.409   0.1            116                   0.94       0.94

[...]

 Partitioning of scfcv_core
- scfcv_core                       42.475  12.1        61.049  15.2            116                   0.70       0.70

- scfcv_core(1)                     0.434   0.1         0.448   0.1            116                   0.97       0.97
- scfcv_core(iniloop, setv          2.944   0.8         2.958   0.7            696                   1.00       1.00
- scfcv_core(vtorho(f))            23.794   6.8        34.505   8.6            696                   0.69       0.69
- scfcv-scprqt                      0.365   0.1         0.369   0.1            696                   0.99       0.99
- scfcv_core(rhotov)                4.313   1.2         4.315   1.1            696                   1.00       1.00
- scfcv_core(qui loop)              0.147   0.0         0.147   0.0            696                   1.00       1.00
- scfcv_core(mix pot)               6.463   1.8        14.119   3.5            580                   0.46       0.46
- scfcv_core(just after sc          0.207   0.1         0.260   0.1            116                   0.80       0.80
- scfcv_core(afterscfloop)          3.239   0.9         3.300   0.8            116                   0.98       0.98
- scfcv_core(outscfcv)              0.490   0.1         0.546   0.1            116                   0.90       0.90

[...]

 Partitioning of rhotov
- rhotov                            4.291   1.2         4.292   1.1            696                   1.00       1.00

- rhotov(rhotoxc)                   3.747   1.1         3.748   0.9            696                   1.00       1.00
- rhotov(other)                     0.087   0.0         0.087   0.0            696                   0.99       0.99
- (other)                           0.427   0.1         0.427   0.1             -1                   1.00       1.00

[...]

 Partitioning of vtorho
- vtorho                           23.765   6.8        34.473   8.6            696                   0.69       0.69

- vtorho(bef. spin loop)            0.145   0.0         0.153   0.0            696                   0.95       0.95
- vtorho(bef. kpt  loop)            0.088   0.0         0.090   0.0            696                   0.97       0.97
- vtorho(bef. vtowfk)               0.576   0.2         0.585   0.1            696                   0.98       0.98
- vtowfk                           19.223   5.5        29.868   7.4            696                   0.64       0.64
- vtorho(aft. kpt loop)             0.466   0.1         0.467   0.1            696                   1.00       1.00
- vtorho(highest occ. eig)          0.108   0.0         0.109   0.0            696                   0.99       0.99
- vtorho(mkrho 2)                   1.258   0.4         1.288   0.3           1392                   0.98       0.98

[...]

 Partitioning of vtowfk
- vtowfk                           19.223   5.5        29.868   7.4            696                   0.64       0.64

- vtowfk(2)                        18.784   5.3        29.426   7.3           -116                   0.64       0.64
- prep_fourwf%vtow                  0.368   0.1         0.368   0.1            696                   1.00       1.00

[...]

 Partitioning of getghc
- getghc                           18.854   5.4        18.874   4.7          11396                   1.00       1.00

- fourwf%getghc                    16.725   4.8        16.741   4.2          11396                   1.00       1.00
- nonlop%getghc                     1.873   0.5         1.881   0.5          11396                   1.00       1.00
- getghc-other                      0.256   0.1         0.252   0.1           -116                   1.02       1.02

[...]

 Partitioning of fourwf (upwards partitioning)
- fourwf                           17.066   4.9        17.083   4.3          12788                   1.00       1.00

- fourwf%getghc                    16.725   4.8        16.741   4.2          11396                   1.00       1.00
- fourwf%prep_four                  0.342   0.1         0.342   0.1           1392                   1.00       1.00

[...]

 Partitioning of prep_getghc
- prep_getghc                       7.537   2.1         7.558   1.9           4640                   1.00       1.00

- prep_getghc(before if)            0.129   0.0         0.132   0.0           4640                   0.98       0.98
- prep_getghc(alltoall)             0.631   0.2         0.633   0.2           9280                   1.00       1.00
- prep_getghc(getghc - 2 )          6.661   1.9         6.677   1.7           4640                   1.00       1.00

[...]

 Partitioning of prep_fourwf
- prep_fourwf                       0.368   0.1         0.368   0.1            696                   1.00       1.00

- fourwf%prep_four                  0.342   0.1         0.342   0.1           1392                   1.00       1.00

[...]

 Partitioning of prep_nonlop
- prep_nonlop                       0.321   0.1         0.323   0.1           1044                   0.99       0.99

- nonlop%prep_nonl%forstrn          0.200   0.1         0.202   0.1            116                   0.99       0.99
- (other)                           0.094   0.0         0.093   0.0             -1                   1.00       1.00

[...]

 Partitioning of inwffil
- inwffil                           0.413   0.1         0.414   0.1            116                   1.00       1.00

- inwffil(call newkpt)              0.397   0.1         0.398   0.1            116                   1.00       1.00

[...]

 Partitioning of newkpt
- newkpt                            0.397   0.1         0.398   0.1            116                   1.00       1.00

- newkpt(after loop   )             0.301   0.1         0.301   0.1            116                   1.00       1.00

[...]

 Partitioning of newvtr
- newvtr                            6.357   1.8        13.992   3.5            580                   0.45       0.45

- newvtr(bef. prcref_PMA)           0.081   0.0         0.087   0.0            580                   0.93       0.93
- newvtr(call prcref_PMA)           0.576   0.2         0.577   0.1            580                   1.00       1.00
- newvtr(aft. prcref_PMA)           5.399   1.5        13.027   3.2            580                   0.41       0.41
- newvtr(mean potential)            0.219   0.1         0.219   0.1            580                   1.00       1.00

[...]

 Partitioning of  fourdp (upwards partitioning)
- fourdp                            5.407   1.5         5.421   1.4          11484                   1.00       1.00

- fourdp%(other)                    5.407   1.5         5.421   1.4          11484                   1.00       1.00

[...]

 Partitioning of afterscfloop
- afterscfloop                      3.152   0.9         3.195   0.8            116                   0.99       0.99

- afterscfloop(forstr)              3.089   0.9         3.129   0.8            116                   0.99       0.99

[...]

 Partitioning of forstr
- forstr                            3.019   0.9         3.046   0.8            116                   0.99       0.99

- forstr(forstrnps)                 0.442   0.1         0.445   0.1            116                   0.99       0.99
- forstr(forces)                    0.905   0.3         0.928   0.2            116                   0.98       0.98
- forstr(stress)                    1.672   0.5         1.673   0.4            116                   1.00       1.00

[...]

 Partitioning of forstrnps
- forstrnps                         0.433   0.1         0.436   0.1            116                   0.99       0.99

- forstrnps(bef.loop band)          0.136   0.0         0.137   0.0            116                   1.00       1.00
- forstrnps(nonlop+prep_ba          0.212   0.1         0.213   0.1            116                   0.99       0.99

[...]

 Partitioning of outscfcv
- outscfcv                          0.459   0.1         0.511   0.1            116                   0.90       0.90

- outscfcv(preparation)             0.107   0.0         0.113   0.0            116                   0.95       0.95
- outscfcv(calcdenmagsph)           0.243   0.1         0.248   0.1            116                   0.98       0.98

[...]

 Partitioning of lobpcgwf2 core engine
- lobpcgwf2                        18.724   5.3        29.364   7.3            928                   0.64       0.64

- lobpcg_init                       0.079   0.0         0.081   0.0            928                   0.97       0.97
- lobpcg_run                       18.413   5.2        29.044   7.2            928                   0.63       0.63
- lobpcg_Bortho                     5.405   1.5        11.851   3.0           4640                   0.46       0.46
- lobpcg_RayleighRitz               5.117   1.5         9.277   2.3           4640                   0.55       0.55
- lobpcg_maxResidu                  0.138   0.0         0.140   0.0           8352                   0.99       0.99
- lobpcg_run@getAX_BX               7.623   2.2         7.646   1.9           4640                   1.00       1.00
- lobpcg_RayleighRitz@hegv          4.071   1.2         8.231   2.1           4640                   0.49       0.49

- subtotal                         40.856  11.6        66.281  16.5                                  0.62       0.62

 Partitioning of low-level xgBlock type
- xgBlock_potrf                     4.486   1.3        10.931   2.7           4640                   0.41       0.41

- xgBlock_trsm                      0.560   0.2         0.562   0.1          13920                   1.00       1.00
- xgBlock_gemm                      1.244   0.4         1.248   0.3          51040                   1.00       1.00
- xgBlock_hegvx                     3.993   1.1         8.155   2.0           3712                   0.49       0.49

- subtotal                          5.931   1.7        10.100   2.5                                  0.59       0.59
-
-
- forstrnps:synchr                  0.053   0.0         0.053   0.0            232                   1.00       1.00
- alltoall%back_wf                  0.086   0.0         0.084   0.0          19952                   1.03       1.03
- alltoall%forw_wf                  0.042   0.0         0.039   0.0          18560                   1.07       1.07
- subtotal                          0.181   0.1         0.176   0.0                                  1.03       1.03

 Additional information
- timana(1)                         0.106   0.0         0.110   0.0            116                   0.97       0.97
- total timab                      13.509   3.8        13.511   3.4       22910915                   1.00       1.00
- fourwf                           17.066   4.9        17.083   4.3          12788                   1.00       1.00
- mklocl(2)                         0.065   0.0         0.065   0.0            116                   1.00       1.00
- nonlop(total)                     2.144   0.6         2.154   0.5          12440                   1.00       1.00
- xc:fourdp                         2.977   0.8         2.970   0.7           7424                   1.00       1.00
- read_rho                         31.922   9.1        31.960   8.0            116                   1.00       1.00

 timana : in multi dataset mode, the more detailed analysis is not done.

 Suggested references for the acknowledgment of ABINIT usage.

 Calculation completed.
.Delivered   0 WARNINGs and   3 COMMENTs to log file.